*SPEF "IEEE 1481-1998"
*DESIGN "Main"
*DATE "Thu Aug  7 22:30:21 2025"
*VENDOR "Cadence Design Systems, Inc."
*PROGRAM "Innovus"
*VERSION "23.31-s109_1"
*DESIGN_FLOW "PIN_CAP NONE" "NAME_SCOPE LOCAL"
*DIVIDER /
*DELIMITER :
*BUS_DELIMITER []
*T_UNIT 1 NS
*C_UNIT 1 PF
*R_UNIT 1 OHM
*L_UNIT 1 HENRY

// MMMC spef file for corner 'RC_BEST'

*NAME_MAP

*1 A6M/FE_OFN5_n_180
*2 A6M/FE_OFN1_scan_en
*3 SPCBSCAN_N6
*4 SPCASCAN_N5
*5 SPCASCAN_N4
*6 SPCASCAN_N3
*7 SPCASCAN_N2
*8 SPCASCAN_N1
*9 SPCASCAN_N0
*10 A6M/FE_DBTN0_n_54
*11 weight\[0\][7]
*12 weight\[0\][6]
*13 weight\[0\][5]
*14 weight\[0\][4]
*15 weight\[0\][3]
*16 weight\[0\][2]
*17 weight\[0\][1]
*18 weight\[0\][0]
*19 weight\[1\][7]
*20 weight\[1\][6]
*21 weight\[1\][5]
*22 weight\[1\][4]
*23 weight\[1\][3]
*24 weight\[1\][2]
*25 weight\[1\][1]
*26 weight\[1\][0]
*27 weight\[2\][7]
*28 weight\[2\][6]
*29 weight\[2\][5]
*30 weight\[2\][4]
*31 weight\[2\][3]
*32 weight\[2\][2]
*33 weight\[2\][1]
*34 weight\[2\][0]
*35 weight\[3\][7]
*36 weight\[3\][6]
*37 weight\[3\][5]
*38 weight\[3\][4]
*39 weight\[3\][3]
*40 weight\[3\][2]
*41 weight\[3\][1]
*42 weight\[3\][0]
*43 weight\[4\][7]
*44 weight\[4\][6]
*45 weight\[4\][5]
*46 weight\[4\][4]
*47 weight\[4\][3]
*48 weight\[4\][2]
*49 weight\[4\][1]
*50 weight\[4\][0]
*51 weight\[5\][7]
*52 weight\[5\][6]
*53 weight\[5\][5]
*54 weight\[5\][4]
*55 weight\[5\][3]
*56 weight\[5\][2]
*57 weight\[5\][1]
*58 weight\[5\][0]
*59 activation\[0\][7]
*60 activation\[0\][6]
*61 activation\[0\][5]
*62 activation\[0\][4]
*63 activation\[0\][3]
*64 activation\[0\][2]
*65 activation\[0\][1]
*66 activation\[0\][0]
*67 activation\[1\][7]
*68 activation\[1\][6]
*69 activation\[1\][5]
*70 activation\[1\][4]
*71 activation\[1\][3]
*72 activation\[1\][2]
*73 activation\[1\][1]
*74 activation\[1\][0]
*75 activation\[2\][7]
*76 activation\[2\][6]
*77 activation\[2\][5]
*78 activation\[2\][4]
*79 activation\[2\][3]
*80 activation\[2\][2]
*81 activation\[2\][1]
*82 activation\[2\][0]
*83 activation\[3\][7]
*84 activation\[3\][6]
*85 activation\[3\][5]
*86 activation\[3\][4]
*87 activation\[3\][3]
*88 activation\[3\][2]
*89 activation\[3\][1]
*90 activation\[3\][0]
*91 activation\[4\][7]
*92 activation\[4\][6]
*93 activation\[4\][5]
*94 activation\[4\][4]
*95 activation\[4\][3]
*96 activation\[4\][2]
*97 activation\[4\][1]
*98 activation\[4\][0]
*99 activation\[5\][7]
*100 activation\[5\][6]
*101 activation\[5\][5]
*102 activation\[5\][4]
*103 activation\[5\][3]
*104 activation\[5\][2]
*105 activation\[5\][1]
*106 activation\[5\][0]
*107 start
*108 clk
*109 rst
*110 en
*111 z_p
*112 scan_en
*113 scan_in
*114 scan_out
*115 result\[0\][4]
*116 result\[0\][3]
*117 result\[0\][2]
*118 result\[0\][1]
*119 result\[0\][0]
*120 result\[1\][4]
*121 result\[1\][3]
*122 result\[1\][2]
*123 result\[1\][1]
*124 result\[1\][0]
*125 result\[2\][4]
*126 result\[2\][3]
*127 result\[2\][2]
*128 result\[2\][1]
*129 result\[2\][0]
*130 result\[3\][4]
*131 result\[3\][3]
*132 result\[3\][2]
*133 result\[3\][1]
*134 result\[3\][0]
*135 result\[4\][4]
*136 result\[4\][3]
*137 result\[4\][2]
*138 result\[4\][1]
*139 result\[4\][0]
*140 result\[5\][4]
*141 result\[5\][3]
*142 result\[5\][2]
*143 result\[5\][1]
*144 result\[5\][0]
*145 sum_combinational[7]
*146 sum_combinational[6]
*147 sum_combinational[5]
*148 sum_combinational[4]
*149 n_105
*150 A6M/activation_reg\[4\][7]
*151 A6M/activation_reg\[4\][6]
*152 A6M/activation_reg\[4\][5]
*153 A6M/activation_reg\[4\][4]
*154 A6M/activation_reg\[4\][3]
*155 A6M/activation_reg\[4\][2]
*156 A6M/activation_reg\[4\][1]
*157 A6M/activation_reg\[4\][0]
*158 A6M/activation_reg\[1\][7]
*159 A6M/activation_reg\[1\][6]
*160 A6M/activation_reg\[1\][5]
*161 A6M/activation_reg\[1\][4]
*162 A6M/activation_reg\[1\][3]
*163 A6M/activation_reg\[1\][2]
*164 A6M/activation_reg\[1\][1]
*165 A6M/activation_reg\[1\][0]
*166 A6M/activation_reg\[3\][7]
*167 A6M/activation_reg\[3\][6]
*168 A6M/activation_reg\[3\][5]
*169 A6M/activation_reg\[3\][4]
*170 A6M/activation_reg\[3\][3]
*171 A6M/activation_reg\[3\][2]
*172 A6M/activation_reg\[3\][1]
*173 A6M/activation_reg\[3\][0]
*174 A6M/activation_reg\[5\][7]
*175 A6M/activation_reg\[5\][6]
*176 A6M/activation_reg\[5\][5]
*177 A6M/activation_reg\[5\][4]
*178 A6M/activation_reg\[5\][3]
*179 A6M/activation_reg\[5\][2]
*180 A6M/activation_reg\[5\][1]
*181 A6M/activation_reg\[5\][0]
*182 A6M/activation_reg\[0\][7]
*183 A6M/activation_reg\[0\][6]
*184 A6M/activation_reg\[0\][5]
*185 A6M/activation_reg\[0\][4]
*186 A6M/activation_reg\[0\][3]
*187 A6M/activation_reg\[0\][2]
*188 A6M/activation_reg\[0\][1]
*189 A6M/activation_reg\[0\][0]
*190 A6M/activation_reg\[2\][7]
*191 A6M/activation_reg\[2\][6]
*192 A6M/activation_reg\[2\][5]
*193 A6M/activation_reg\[2\][4]
*194 A6M/activation_reg\[2\][3]
*195 A6M/activation_reg\[2\][2]
*196 A6M/activation_reg\[2\][1]
*197 A6M/activation_reg\[2\][0]
*198 A6M/cycle_counter[3]
*199 A6M/cycle_counter[2]
*200 A6M/cycle_counter[1]
*201 A6M/cycle_counter[0]
*202 A6M/n_1
*203 A6M/n_2
*204 A6M/n_4
*205 A6M/n_5
*206 A6M/n_6
*207 A6M/n_7
*208 A6M/n_8
*209 A6M/n_9
*210 A6M/n_10
*211 A6M/n_11
*212 A6M/n_12
*213 A6M/n_13
*214 A6M/n_14
*215 A6M/n_15
*216 A6M/n_16
*217 A6M/n_17
*218 A6M/n_47
*219 A6M/n_48
*220 A6M/n_49
*221 A6M/n_54
*222 A6M/n_55
*223 A6M/n_56
*224 A6M/n_57
*225 A6M/n_58
*226 A6M/n_59
*227 A6M/n_60
*228 A6M/n_61
*229 A6M/n_62
*230 A6M/n_63
*231 A6M/n_64
*232 A6M/n_65
*233 A6M/n_66
*234 A6M/n_67
*235 A6M/n_68
*236 A6M/n_69
*237 A6M/n_70
*238 A6M/n_71
*239 A6M/n_72
*240 A6M/n_73
*241 A6M/n_74
*242 A6M/n_75
*243 A6M/n_76
*244 A6M/n_77
*245 A6M/n_78
*246 A6M/n_79
*247 A6M/n_80
*248 A6M/n_81
*249 A6M/n_82
*250 A6M/n_83
*251 A6M/n_84
*252 A6M/n_85
*253 A6M/n_86
*254 A6M/n_87
*255 A6M/n_88
*256 A6M/n_89
*257 A6M/n_90
*258 A6M/n_91
*259 A6M/n_92
*260 A6M/n_93
*261 A6M/n_94
*262 A6M/n_95
*263 A6M/n_96
*264 A6M/n_97
*265 A6M/n_98
*266 A6M/n_99
*267 A6M/n_100
*268 A6M/n_101
*269 A6M/n_102
*270 A6M/n_103
*271 A6M/n_104
*272 A6M/n_105
*273 A6M/n_106
*274 A6M/n_107
*275 A6M/n_108
*276 A6M/n_109
*277 A6M/n_110
*278 A6M/n_111
*279 A6M/n_112
*280 A6M/n_113
*281 A6M/n_114
*282 A6M/n_115
*283 A6M/n_116
*284 A6M/n_117
*285 A6M/n_118
*286 A6M/n_119
*287 A6M/n_120
*288 A6M/n_121
*289 A6M/n_122
*290 A6M/n_123
*291 A6M/n_124
*292 A6M/n_125
*293 A6M/n_126
*294 A6M/n_127
*295 A6M/n_128
*296 A6M/n_129
*297 A6M/n_130
*298 A6M/n_131
*299 A6M/n_132
*300 A6M/n_133
*301 A6M/n_134
*302 A6M/n_135
*303 A6M/n_136
*304 A6M/n_137
*305 A6M/n_138
*306 A6M/n_139
*307 A6M/n_140
*308 A6M/n_141
*309 A6M/n_142
*310 A6M/n_143
*311 A6M/n_144
*312 A6M/n_145
*313 A6M/n_146
*314 A6M/n_147
*315 A6M/n_148
*316 A6M/n_149
*317 A6M/n_150
*318 A6M/n_151
*319 A6M/n_152
*320 A6M/n_153
*321 A6M/n_154
*322 A6M/n_155
*323 A6M/n_156
*324 A6M/n_157
*325 A6M/n_158
*326 A6M/n_159
*327 A6M/n_160
*328 A6M/n_161
*329 A6M/n_162
*330 A6M/n_163
*331 A6M/n_164
*332 A6M/n_165
*333 A6M/n_166
*334 A6M/n_167
*335 A6M/n_168
*336 A6M/n_169
*337 A6M/n_170
*338 A6M/n_171
*339 A6M/n_172
*340 A6M/n_173
*341 A6M/n_174
*342 A6M/n_175
*343 A6M/n_176
*344 A6M/n_177
*345 A6M/n_178
*346 A6M/n_179
*347 A6M/n_180
*348 A6M/n_184
*349 A6M/n_185
*350 A6M/n_186
*351 A6M/n_187
*352 A6M/n_188
*353 A6M/n_189
*354 A6M/n_190
*355 A6M/n_191
*356 A6M/n_192
*357 AT6/int_sum_L1\[0\][5]
*358 AT6/int_sum_L1\[0\][4]
*359 AT6/int_sum_L1\[0\][3]
*360 AT6/int_sum_L1\[0\][2]
*361 AT6/int_sum_L1\[0\][1]
*362 AT6/int_sum_L1\[0\][0]
*363 AT6/int_sum_L1\[1\][5]
*364 AT6/int_sum_L1\[1\][4]
*365 AT6/int_sum_L1\[1\][3]
*366 AT6/int_sum_L1\[1\][2]
*367 AT6/int_sum_L1\[1\][1]
*368 AT6/int_sum_L1\[1\][0]
*369 AT6/int_sum_L1\[2\][5]
*370 AT6/int_sum_L1\[2\][4]
*371 AT6/int_sum_L1\[2\][3]
*372 AT6/int_sum_L1\[2\][2]
*373 AT6/int_sum_L1\[2\][1]
*374 AT6/int_sum_L1\[2\][0]
*375 AT6/int_sum_L2\[0\][6]
*376 AT6/int_sum_L2\[0\][5]
*377 AT6/int_sum_L2\[0\][4]
*378 AT6/int_sum_L2\[0\][3]
*379 AT6/int_sum_L2\[0\][2]
*380 AT6/int_sum_L2\[0\][1]
*381 AT6/int_sum_L2\[0\][0]
*382 AT6/sum_out[0]
*383 AT6/int_sum_L2\[1\][6]
*384 AT6/int_sum_L2\[1\][5]
*385 AT6/int_sum_L2\[1\][4]
*386 AT6/int_sum_L2\[1\][3]
*387 AT6/int_sum_L2\[1\][2]
*388 AT6/int_sum_L2\[1\][1]
*389 AT6/n_0
*390 AT6/n_1
*391 AT6/n_2
*392 AT6/n_3
*393 AT6/n_40
*394 AT6/n_41
*395 AT6/n_42
*396 AT6/n_43
*397 AT6/L1_ADD\[0\]\.inst_L1/n_2
*398 AT6/L1_ADD\[0\]\.inst_L1/n_3
*399 AT6/L1_ADD\[0\]\.inst_L1/n_5
*400 AT6/L1_ADD\[0\]\.inst_L1/n_6
*401 AT6/L1_ADD\[0\]\.inst_L1/n_7
*402 AT6/L1_ADD\[0\]\.inst_L1/n_8
*403 AT6/L1_ADD\[0\]\.inst_L1/n_9
*404 AT6/L1_ADD\[0\]\.inst_L1/n_10
*405 AT6/L1_ADD\[0\]\.inst_L1/n_11
*406 AT6/L1_ADD\[0\]\.inst_L1/n_12
*407 AT6/L1_ADD\[0\]\.inst_L1/n_13
*408 AT6/L1_ADD\[0\]\.inst_L1/n_14
*409 AT6/L1_ADD\[0\]\.inst_L1/n_15
*410 AT6/L1_ADD\[0\]\.inst_L1/n_16
*411 AT6/L1_ADD\[0\]\.inst_L1/n_17
*412 AT6/L1_ADD\[0\]\.inst_L1/n_18
*413 AT6/L1_ADD\[0\]\.inst_L1/n_20
*414 AT6/L1_ADD\[0\]\.inst_L1/n_21
*415 AT6/L1_ADD\[0\]\.inst_L1/n_23
*416 AT6/L1_ADD\[0\]\.inst_L1/n_24
*417 AT6/L1_ADD\[0\]\.inst_L1/n_26
*418 AT6/L1_ADD\[0\]\.inst_L1/n_27
*419 AT6/L1_ADD\[0\]\.inst_L1/n_29
*420 AT6/L1_ADD\[0\]\.inst_L1/n_30
*421 AT6/L1_ADD\[1\]\.inst_L1/n_2
*422 AT6/L1_ADD\[1\]\.inst_L1/n_3
*423 AT6/L1_ADD\[1\]\.inst_L1/n_5
*424 AT6/L1_ADD\[1\]\.inst_L1/n_6
*425 AT6/L1_ADD\[1\]\.inst_L1/n_7
*426 AT6/L1_ADD\[1\]\.inst_L1/n_8
*427 AT6/L1_ADD\[1\]\.inst_L1/n_9
*428 AT6/L1_ADD\[1\]\.inst_L1/n_10
*429 AT6/L1_ADD\[1\]\.inst_L1/n_11
*430 AT6/L1_ADD\[1\]\.inst_L1/n_12
*431 AT6/L1_ADD\[1\]\.inst_L1/n_13
*432 AT6/L1_ADD\[1\]\.inst_L1/n_14
*433 AT6/L1_ADD\[1\]\.inst_L1/n_15
*434 AT6/L1_ADD\[1\]\.inst_L1/n_16
*435 AT6/L1_ADD\[1\]\.inst_L1/n_17
*436 AT6/L1_ADD\[1\]\.inst_L1/n_18
*437 AT6/L1_ADD\[1\]\.inst_L1/n_20
*438 AT6/L1_ADD\[1\]\.inst_L1/n_21
*439 AT6/L1_ADD\[1\]\.inst_L1/n_23
*440 AT6/L1_ADD\[1\]\.inst_L1/n_24
*441 AT6/L1_ADD\[1\]\.inst_L1/n_26
*442 AT6/L1_ADD\[1\]\.inst_L1/n_27
*443 AT6/L1_ADD\[1\]\.inst_L1/n_29
*444 AT6/L1_ADD\[1\]\.inst_L1/n_30
*445 AT6/L1_ADD\[2\]\.inst_L1/n_3
*446 AT6/L1_ADD\[2\]\.inst_L1/n_4
*447 AT6/L1_ADD\[2\]\.inst_L1/n_5
*448 AT6/L1_ADD\[2\]\.inst_L1/n_6
*449 AT6/L1_ADD\[2\]\.inst_L1/n_7
*450 AT6/L1_ADD\[2\]\.inst_L1/n_8
*451 AT6/L1_ADD\[2\]\.inst_L1/n_9
*452 AT6/L1_ADD\[2\]\.inst_L1/n_10
*453 AT6/L1_ADD\[2\]\.inst_L1/n_11
*454 AT6/L1_ADD\[2\]\.inst_L1/n_12
*455 AT6/L1_ADD\[2\]\.inst_L1/n_13
*456 AT6/L1_ADD\[2\]\.inst_L1/n_14
*457 AT6/L1_ADD\[2\]\.inst_L1/n_15
*458 AT6/L1_ADD\[2\]\.inst_L1/n_17
*459 AT6/L1_ADD\[2\]\.inst_L1/n_18
*460 AT6/L1_ADD\[2\]\.inst_L1/n_20
*461 AT6/L1_ADD\[2\]\.inst_L1/n_21
*462 AT6/L1_ADD\[2\]\.inst_L1/n_23
*463 AT6/inst_L2/n_0
*464 AT6/inst_L2/n_1
*465 AT6/inst_L2/n_2
*466 AT6/inst_L2/n_3
*467 AT6/inst_L2/n_4
*468 AT6/inst_L2/n_5
*469 AT6/inst_L2/n_6
*470 AT6/inst_L2/n_8
*471 AT6/inst_L2/n_10
*472 AT6/inst_L2/n_11
*473 AT6/inst_L2/n_12
*474 AT6/inst_L2/n_13
*475 AT6/inst_L2/n_14
*476 AT6/inst_L2/n_15
*477 AT6/inst_L2/n_16
*478 AT6/inst_L2/n_17
*479 AT6/inst_L2/n_18
*480 AT6/inst_L2/n_19
*481 AT6/inst_L2/n_20
*482 AT6/inst_L2/n_21
*483 AT6/inst_L2/n_22
*484 AT6/inst_L2/n_24
*485 AT6/inst_L2/n_25
*486 AT6/inst_L2/n_27
*487 AT6/inst_L2/n_28
*488 AT6/inst_L2/n_30
*489 AT6/inst_L2/n_31
*490 AT6/inst_L2/n_33
*491 AT6/inst_L2/n_34
*492 AT6/inst_L2/n_36
*493 AT6/inst_L2/n_37
*494 AT6/inst_L2_extra/Carry[3]
*495 AT6/inst_L2_extra/n_0
*496 AT6/inst_L2_extra/n_1
*497 AT6/inst_L2_extra/n_2
*498 AT6/inst_L2_extra/n_4
*499 AT6/inst_L2_extra/n_5
*500 AT6/inst_L2_extra/n_6
*501 AT6/inst_L2_extra/n_7
*502 AT6/inst_L2_extra/n_8
*503 AT6/inst_L2_extra/n_10
*504 AT6/inst_L2_extra/n_11
*505 AT6/inst_L2_extra/n_12
*506 AT6/inst_L2_extra/n_14
*507 AT6/inst_L2_extra/n_16
*508 AT6/inst_L6_0/Carry[3]
*509 AT6/inst_L6_0/Carry[2]
*510 AT6/inst_L6_0/n_1
*511 AT6/inst_L6_0/n_2
*512 AT6/inst_L6_0/n_3
*513 AT6/inst_L6_0/n_4
*514 AT6/inst_L6_0/n_5
*515 AT6/inst_L6_0/n_6
*516 AT6/inst_L6_0/n_7
*517 AT6/inst_L6_0/n_8
*518 AT6/inst_L6_0/n_9
*519 AT6/inst_L6_0/n_10
*520 AT6/inst_L6_0/n_11
*521 AT6/inst_L6_0/n_12
*522 AT6/inst_L6_0/n_13
*523 AT6/inst_L6_0/n_14
*524 AT6/inst_L6_0/n_15
*525 AT6/inst_L6_0/n_16
*526 AT6/inst_L6_0/n_17
*527 AT6/inst_L6_0/n_18
*528 AT6/inst_L6_0/n_19
*529 AT6/inst_L6_0/n_20
*530 AT6/inst_L6_0/n_21
*531 AT6/inst_L6_0/n_22
*532 AT6/inst_L6_0/n_24
*533 OGF/n_0
*534 OGF/n_1
*535 OGF/n_2
*536 OGF/n_3
*537 OGF/n_4
*538 OGF/n_5
*539 OGF/n_6
*540 OGF/n_7
*541 OGF/n_8
*542 OGF/n_9
*543 OGF/n_10
*544 OGF/n_11
*545 OGF/n_12
*546 OGF/n_13
*547 z_n
*548 A6M/FE_OFC4_n_180
*549 A6M/FE_OFC0_scan_en
*550 A6M/FE_RC_0_0
*551 A6M/FE_DBTC0_n_54
*552 A6M/g2406
*553 A6M/g3309__2398
*554 A6M/g3310__5107
*555 A6M/g3311__6260
*556 A6M/g3312__4319
*557 A6M/g3313__8428
*558 A6M/g3314__5526
*559 A6M/g3315__6783
*560 A6M/g3316__3680
*561 A6M/g3317__1617
*562 A6M/g3318__2802
*563 A6M/g3319__1705
*564 A6M/g3320__5122
*565 A6M/g3321__8246
*566 A6M/g3322__7098
*567 A6M/g3323__6131
*568 A6M/g3324__1881
*569 A6M/g3325__5115
*570 A6M/g3326__7482
*571 A6M/g3327__4733
*572 A6M/g3328__6161
*573 A6M/g3329__9315
*574 A6M/g3330__9945
*575 A6M/g3331__2883
*576 A6M/g3332__2346
*577 A6M/g3333__1666
*578 A6M/g3334__7410
*579 A6M/g3335__6417
*580 A6M/g3336__5477
*581 A6M/g3337__2398
*582 A6M/g3338__5107
*583 A6M/g3339__6260
*584 A6M/g3340__4319
*585 A6M/g3341__8428
*586 A6M/g3342__5526
*587 A6M/g3343__6783
*588 A6M/g3344__3680
*589 A6M/g3345__1617
*590 A6M/g3346
*591 A6M/g3347
*592 A6M/g3348__2802
*593 A6M/g3350__1705
*594 A6M/g3352__5122
*595 A6M/g3353__8246
*596 A6M/g3354__7098
*597 A6M/g2__6131
*598 A6M/activation_reg_reg\[0\]\[0\]
*599 A6M/activation_reg_reg\[0\]\[1\]
*600 A6M/activation_reg_reg\[0\]\[2\]
*601 A6M/activation_reg_reg\[0\]\[3\]
*602 A6M/activation_reg_reg\[0\]\[4\]
*603 A6M/activation_reg_reg\[0\]\[5\]
*604 A6M/activation_reg_reg\[0\]\[6\]
*605 A6M/activation_reg_reg\[0\]\[7\]
*606 A6M/activation_reg_reg\[1\]\[0\]
*607 A6M/activation_reg_reg\[1\]\[1\]
*608 A6M/activation_reg_reg\[1\]\[2\]
*609 A6M/activation_reg_reg\[1\]\[3\]
*610 A6M/activation_reg_reg\[1\]\[4\]
*611 A6M/activation_reg_reg\[1\]\[5\]
*612 A6M/activation_reg_reg\[1\]\[6\]
*613 A6M/activation_reg_reg\[1\]\[7\]
*614 A6M/activation_reg_reg\[2\]\[0\]
*615 A6M/activation_reg_reg\[2\]\[1\]
*616 A6M/activation_reg_reg\[2\]\[2\]
*617 A6M/activation_reg_reg\[2\]\[3\]
*618 A6M/activation_reg_reg\[2\]\[4\]
*619 A6M/activation_reg_reg\[2\]\[5\]
*620 A6M/activation_reg_reg\[2\]\[6\]
*621 A6M/activation_reg_reg\[2\]\[7\]
*622 A6M/activation_reg_reg\[3\]\[0\]
*623 A6M/activation_reg_reg\[3\]\[1\]
*624 A6M/activation_reg_reg\[3\]\[2\]
*625 A6M/activation_reg_reg\[3\]\[3\]
*626 A6M/activation_reg_reg\[3\]\[4\]
*627 A6M/activation_reg_reg\[3\]\[5\]
*628 A6M/activation_reg_reg\[3\]\[6\]
*629 A6M/activation_reg_reg\[3\]\[7\]
*630 A6M/activation_reg_reg\[4\]\[0\]
*631 A6M/activation_reg_reg\[4\]\[1\]
*632 A6M/activation_reg_reg\[4\]\[2\]
*633 A6M/activation_reg_reg\[4\]\[3\]
*634 A6M/activation_reg_reg\[4\]\[4\]
*635 A6M/activation_reg_reg\[4\]\[5\]
*636 A6M/activation_reg_reg\[4\]\[6\]
*637 A6M/activation_reg_reg\[4\]\[7\]
*638 A6M/activation_reg_reg\[5\]\[0\]
*639 A6M/activation_reg_reg\[5\]\[1\]
*640 A6M/activation_reg_reg\[5\]\[2\]
*641 A6M/activation_reg_reg\[5\]\[3\]
*642 A6M/activation_reg_reg\[5\]\[4\]
*643 A6M/activation_reg_reg\[5\]\[5\]
*644 A6M/activation_reg_reg\[5\]\[6\]
*645 A6M/activation_reg_reg\[5\]\[7\]
*646 A6M/cycle_counter_reg\[0\]
*647 A6M/cycle_counter_reg\[1\]
*648 A6M/cycle_counter_reg\[2\]
*649 A6M/cycle_counter_reg\[3\]
*650 A6M/en_reg
*651 A6M/result_reg\[0\]\[0\]
*652 A6M/result_reg\[0\]\[1\]
*653 A6M/result_reg\[0\]\[2\]
*654 A6M/result_reg\[0\]\[3\]
*655 A6M/result_reg\[0\]\[4\]
*656 A6M/result_reg\[1\]\[0\]
*657 A6M/result_reg\[1\]\[1\]
*658 A6M/result_reg\[1\]\[2\]
*659 A6M/result_reg\[1\]\[3\]
*660 A6M/result_reg\[1\]\[4\]
*661 A6M/result_reg\[2\]\[0\]
*662 A6M/result_reg\[2\]\[1\]
*663 A6M/result_reg\[2\]\[2\]
*664 A6M/result_reg\[2\]\[3\]
*665 A6M/result_reg\[2\]\[4\]
*666 A6M/result_reg\[3\]\[0\]
*667 A6M/result_reg\[3\]\[1\]
*668 A6M/result_reg\[3\]\[2\]
*669 A6M/result_reg\[3\]\[3\]
*670 A6M/result_reg\[3\]\[4\]
*671 A6M/result_reg\[4\]\[0\]
*672 A6M/result_reg\[4\]\[1\]
*673 A6M/result_reg\[4\]\[2\]
*674 A6M/result_reg\[4\]\[3\]
*675 A6M/result_reg\[4\]\[4\]
*676 A6M/result_reg\[5\]\[0\]
*677 A6M/result_reg\[5\]\[1\]
*678 A6M/result_reg\[5\]\[2\]
*679 A6M/result_reg\[5\]\[3\]
*680 A6M/result_reg\[5\]\[4\]
*681 A6M/g3409__1881
*682 A6M/g3411__5115
*683 A6M/g3412__7482
*684 A6M/g3439__4733
*685 A6M/g3440__6161
*686 A6M/g3441__9315
*687 A6M/g3465__9945
*688 A6M/g3467__2346
*689 A6M/g3468__1666
*690 A6M/g3469__7410
*691 A6M/g3470__6417
*692 A6M/g3471__5477
*693 A6M/g3472__2398
*694 A6M/g3473__5107
*695 A6M/g3495__6260
*696 A6M/g3505__4319
*697 A6M/g3506__8428
*698 A6M/g3507__5526
*699 A6M/g3508__6783
*700 A6M/g3509__3680
*701 A6M/g3510__1617
*702 A6M/g3511__2802
*703 A6M/g3512__1705
*704 A6M/g3513__5122
*705 A6M/g3514__8246
*706 A6M/g3515__7098
*707 A6M/g3516__6131
*708 A6M/g3517__1881
*709 A6M/g3518__5115
*710 A6M/g3519__7482
*711 A6M/g3520__4733
*712 A6M/g3521__6161
*713 A6M/g3522__9315
*714 A6M/g3523__9945
*715 A6M/g3524__2883
*716 A6M/g3525__2346
*717 A6M/g3526__1666
*718 A6M/g3527__7410
*719 A6M/g3528__6417
*720 A6M/g3529__5477
*721 A6M/g3530__2398
*722 A6M/g3531__5107
*723 A6M/g3532__6260
*724 A6M/g3533__4319
*725 A6M/g3534__8428
*726 A6M/g3535__5526
*727 A6M/g3536__6783
*728 A6M/g3537__3680
*729 A6M/g3538__1617
*730 A6M/g3539__2802
*731 A6M/g3540__1705
*732 A6M/g3541__5122
*733 A6M/g3542__8246
*734 A6M/g3543__7098
*735 A6M/g3544__6131
*736 A6M/g3545__1881
*737 A6M/g3546__5115
*738 A6M/g3547__7482
*739 A6M/g3548__4733
*740 A6M/g3549__6161
*741 A6M/g3550__9315
*742 A6M/g3551__9945
*743 A6M/g3552__2883
*744 A6M/g3553__2346
*745 A6M/g3554__1666
*746 A6M/g3555__7410
*747 A6M/g3556__6417
*748 A6M/g3557__5477
*749 A6M/g3558__2398
*750 A6M/g3559__5107
*751 A6M/g3560__6260
*752 A6M/g3561__4319
*753 A6M/g3562__8428
*754 A6M/g3563__5526
*755 A6M/g3564__6783
*756 A6M/g3565__3680
*757 A6M/g3566__1617
*758 A6M/g3567__2802
*759 A6M/g3568__1705
*760 A6M/g3569__5122
*761 A6M/g3570__8246
*762 A6M/g3571__7098
*763 A6M/g3572__6131
*764 A6M/g3573__1881
*765 A6M/g3574__5115
*766 A6M/g3575__7482
*767 A6M/g3576__4733
*768 A6M/g3577__6161
*769 A6M/g3582__9315
*770 A6M/g3584
*771 A6M/g3585
*772 A6M/g3586
*773 AT6/L1_ADD\[0\]\.inst_L1/g294__9945
*774 AT6/L1_ADD\[0\]\.inst_L1/g295__2883
*775 AT6/L1_ADD\[0\]\.inst_L1/g296__2346
*776 AT6/L1_ADD\[0\]\.inst_L1/g297__1666
*777 AT6/L1_ADD\[0\]\.inst_L1/g298__7410
*778 AT6/L1_ADD\[0\]\.inst_L1/g299__6417
*779 AT6/L1_ADD\[0\]\.inst_L1/g300__5477
*780 AT6/L1_ADD\[0\]\.inst_L1/g301__2398
*781 AT6/L1_ADD\[0\]\.inst_L1/g302__5107
*782 AT6/L1_ADD\[0\]\.inst_L1/g303__6260
*783 AT6/L1_ADD\[0\]\.inst_L1/g304__4319
*784 AT6/L1_ADD\[0\]\.inst_L1/g305__8428
*785 AT6/L1_ADD\[0\]\.inst_L1/g306
*786 AT6/L1_ADD\[0\]\.inst_L1/g307__5526
*787 AT6/L1_ADD\[0\]\.inst_L1/g308__6783
*788 AT6/L1_ADD\[0\]\.inst_L1/g309__3680
*789 AT6/L1_ADD\[0\]\.inst_L1/g310__1617
*790 AT6/L1_ADD\[0\]\.inst_L1/g311__2802
*791 AT6/L1_ADD\[0\]\.inst_L1/g312__1705
*792 AT6/L1_ADD\[0\]\.inst_L1/g313__5122
*793 AT6/L1_ADD\[0\]\.inst_L1/g314__8246
*794 AT6/L1_ADD\[0\]\.inst_L1/g315__7098
*795 AT6/L1_ADD\[0\]\.inst_L1/g316__6131
*796 AT6/L1_ADD\[0\]\.inst_L1/g317__1881
*797 AT6/L1_ADD\[0\]\.inst_L1/g318__5115
*798 AT6/L1_ADD\[0\]\.inst_L1/g319__7482
*799 AT6/L1_ADD\[0\]\.inst_L1/g320__4733
*800 AT6/L1_ADD\[0\]\.inst_L1/g321__6161
*801 AT6/L1_ADD\[0\]\.inst_L1/g323
*802 AT6/L1_ADD\[0\]\.inst_L1/g325
*803 AT6/L1_ADD\[1\]\.inst_L1/g294__9315
*804 AT6/L1_ADD\[1\]\.inst_L1/g295__9945
*805 AT6/L1_ADD\[1\]\.inst_L1/g296__2883
*806 AT6/L1_ADD\[1\]\.inst_L1/g297__2346
*807 AT6/L1_ADD\[1\]\.inst_L1/g298__1666
*808 AT6/L1_ADD\[1\]\.inst_L1/g299__7410
*809 AT6/L1_ADD\[1\]\.inst_L1/g300__6417
*810 AT6/L1_ADD\[1\]\.inst_L1/g301__5477
*811 AT6/L1_ADD\[1\]\.inst_L1/g302__2398
*812 AT6/L1_ADD\[1\]\.inst_L1/g303__5107
*813 AT6/L1_ADD\[1\]\.inst_L1/g304__6260
*814 AT6/L1_ADD\[1\]\.inst_L1/g305__4319
*815 AT6/L1_ADD\[1\]\.inst_L1/g306
*816 AT6/L1_ADD\[1\]\.inst_L1/g307__8428
*817 AT6/L1_ADD\[1\]\.inst_L1/g308__5526
*818 AT6/L1_ADD\[1\]\.inst_L1/g309__6783
*819 AT6/L1_ADD\[1\]\.inst_L1/g310__3680
*820 AT6/L1_ADD\[1\]\.inst_L1/g311__1617
*821 AT6/L1_ADD\[1\]\.inst_L1/g312__2802
*822 AT6/L1_ADD\[1\]\.inst_L1/g313__1705
*823 AT6/L1_ADD\[1\]\.inst_L1/g314__5122
*824 AT6/L1_ADD\[1\]\.inst_L1/g315__8246
*825 AT6/L1_ADD\[1\]\.inst_L1/g316__7098
*826 AT6/L1_ADD\[1\]\.inst_L1/g317__6131
*827 AT6/L1_ADD\[1\]\.inst_L1/g318__1881
*828 AT6/L1_ADD\[1\]\.inst_L1/g319__5115
*829 AT6/L1_ADD\[1\]\.inst_L1/g320__7482
*830 AT6/L1_ADD\[1\]\.inst_L1/g321__4733
*831 AT6/L1_ADD\[1\]\.inst_L1/g323
*832 AT6/L1_ADD\[1\]\.inst_L1/g325
*833 AT6/L1_ADD\[2\]\.inst_L1/g294__6161
*834 AT6/L1_ADD\[2\]\.inst_L1/g295__9315
*835 AT6/L1_ADD\[2\]\.inst_L1/g296__9945
*836 AT6/L1_ADD\[2\]\.inst_L1/g297__2883
*837 AT6/L1_ADD\[2\]\.inst_L1/g298__2346
*838 AT6/L1_ADD\[2\]\.inst_L1/g299__1666
*839 AT6/L1_ADD\[2\]\.inst_L1/g300__7410
*840 AT6/L1_ADD\[2\]\.inst_L1/g301__6417
*841 AT6/L1_ADD\[2\]\.inst_L1/g302__5477
*842 AT6/L1_ADD\[2\]\.inst_L1/g303__2398
*843 AT6/L1_ADD\[2\]\.inst_L1/g307__5107
*844 AT6/L1_ADD\[2\]\.inst_L1/g308__6260
*845 AT6/L1_ADD\[2\]\.inst_L1/g309__4319
*846 AT6/L1_ADD\[2\]\.inst_L1/g311__8428
*847 AT6/L1_ADD\[2\]\.inst_L1/g312__5526
*848 AT6/L1_ADD\[2\]\.inst_L1/g313__6783
*849 AT6/L1_ADD\[2\]\.inst_L1/g314__3680
*850 AT6/L1_ADD\[2\]\.inst_L1/g315__1617
*851 AT6/L1_ADD\[2\]\.inst_L1/g316__2802
*852 AT6/L1_ADD\[2\]\.inst_L1/g318
*853 AT6/L1_ADD\[2\]\.inst_L1/g320
*854 AT6/L1_ADD\[2\]\.inst_L1/g2__1705
*855 AT6/L1_ADD\[2\]\.inst_L1/g323__5122
*856 AT6/L1_ADD\[2\]\.inst_L1/g333__8246
*857 AT6/inst_L2/g380__7098
*858 AT6/inst_L2/g381__6131
*859 AT6/inst_L2/g382__1881
*860 AT6/inst_L2/g383__5115
*861 AT6/inst_L2/g384__7482
*862 AT6/inst_L2/g385__4733
*863 AT6/inst_L2/g386__6161
*864 AT6/inst_L2/g387__9315
*865 AT6/inst_L2/g388__9945
*866 AT6/inst_L2/g389__2883
*867 AT6/inst_L2/g390__2346
*868 AT6/inst_L2/g391__1666
*869 AT6/inst_L2/g392__7410
*870 AT6/inst_L2/g393__6417
*871 AT6/inst_L2/g394__5477
*872 AT6/inst_L2/g395__2398
*873 AT6/inst_L2/g396__5107
*874 AT6/inst_L2/g397__6260
*875 AT6/inst_L2/g398__4319
*876 AT6/inst_L2/g399__8428
*877 AT6/inst_L2/g400__5526
*878 AT6/inst_L2/g401__6783
*879 AT6/inst_L2/g403__3680
*880 AT6/inst_L2/g404__1617
*881 AT6/inst_L2/g405__2802
*882 AT6/inst_L2/g406__1705
*883 AT6/inst_L2/g407__5122
*884 AT6/inst_L2/g408__8246
*885 AT6/inst_L2/g410__7098
*886 AT6/inst_L2/g414
*887 AT6/inst_L2/g417
*888 AT6/inst_L2/g418
*889 AT6/inst_L2/g419
*890 AT6/inst_L2/g420
*891 AT6/inst_L2/g421
*892 AT6/inst_L2/g2__6131
*893 AT6/inst_L2/g422__1881
*894 AT6/inst_L2_extra/g72__5115
*895 AT6/inst_L2_extra/g83__7482
*896 AT6/inst_L2_extra/g84__4733
*897 AT6/inst_L2_extra/g86__6161
*898 AT6/inst_L2_extra/g156__9315
*899 AT6/inst_L2_extra/g159__9945
*900 AT6/inst_L2_extra/g160__2883
*901 AT6/inst_L2_extra/g161__2346
*902 AT6/inst_L2_extra/g162__1666
*903 AT6/inst_L2_extra/g164__7410
*904 AT6/inst_L2_extra/g165__6417
*905 AT6/inst_L2_extra/g166__5477
*906 AT6/inst_L2_extra/g167__2398
*907 AT6/inst_L2_extra/g168__5107
*908 AT6/inst_L2_extra/g2__6260
*909 AT6/inst_L2_extra/g109__4319
*910 AT6/inst_L2_extra/g111__8428
*911 AT6/inst_L2_extra/g112__5526
*912 AT6/inst_L2_extra/g113__6783
*913 AT6/inst_L2_extra/g114__3680
*914 AT6/inst_L6_0/g138__1617
*915 AT6/inst_L6_0/g149__2802
*916 AT6/inst_L6_0/g150__1705
*917 AT6/inst_L6_0/g175__5122
*918 AT6/inst_L6_0/g177__8246
*919 AT6/inst_L6_0/g178__7098
*920 AT6/inst_L6_0/g179__6131
*921 AT6/inst_L6_0/g180__1881
*922 AT6/inst_L6_0/g181__5115
*923 AT6/inst_L6_0/g182__7482
*924 AT6/inst_L6_0/g183__4733
*925 AT6/inst_L6_0/g2__6161
*926 AT6/inst_L6_0/g291__9315
*927 AT6/inst_L6_0/g292__9945
*928 AT6/inst_L6_0/g293__2883
*929 AT6/inst_L6_0/g294__2346
*930 AT6/inst_L6_0/g295__1666
*931 AT6/inst_L6_0/g296__7410
*932 AT6/inst_L6_0/g297__6417
*933 AT6/inst_L6_0/g298__5477
*934 AT6/inst_L6_0/g299__2398
*935 AT6/inst_L6_0/g300__5107
*936 AT6/inst_L6_0/g301__6260
*937 AT6/inst_L6_0/g302__4319
*938 AT6/inst_L6_0/g303__8428
*939 AT6/inst_L6_0/g304__5526
*940 AT6/inst_L6_0/g305__6783
*941 AT6/inst_L6_0/g306__3680
*942 AT6/inst_L6_0/g307__1617
*943 AT6/inst_L6_0/g308__2802
*944 AT6/inst_L6_0/g309__1705
*945 AT6/inst_L6_0/g310
*946 AT6/inst_L6_0/g311
*947 AT6/sum_out_reg\[3\]
*948 AT6/g9__5122
*949 AT6/sum_out_reg\[2\]
*950 AT6/g11__8246
*951 AT6/sum_out_reg\[1\]
*952 AT6/g13__7098
*953 AT6/sum_out_reg\[0\]
*954 AT6/g15__6131
*955 OGF/R3_reg
*956 OGF/g253__1881
*957 OGF/g254__5115
*958 OGF/g255__7482
*959 OGF/g256__4733
*960 OGF/g257__6161
*961 OGF/R2_reg
*962 OGF/g260__9315
*963 OGF/g261__9945
*964 OGF/g262__2883
*965 OGF/g263__2346
*966 OGF/R1_reg
*967 OGF/g265__1666
*968 OGF/g266__7410
*969 OGF/g267__6417
*970 OGF/R0_reg
*971 OGF/g270
*972 OGF/g271
*973 OGF/g2__5477


*PORTS

*11 I *C 136.08 95.55
*12 I *C 136.08 100.59
*13 I *C 136.08 105.63
*14 I *C 136.08 110.67
*15 I *C 136.08 115.71
*16 I *C 136.08 120.75
*17 I *C 136.08 125.79
*18 I *C 136.08 130.83
*19 I *C 136.08 55.23
*20 I *C 136.08 60.27
*21 I *C 136.08 65.31
*22 I *C 136.08 70.35
*23 I *C 136.08 75.39
*24 I *C 136.08 80.43
*25 I *C 136.08 85.47
*26 I *C 136.08 90.51
*27 I *C 136.08 14.91
*28 I *C 136.08 19.95
*29 I *C 136.08 24.99
*30 I *C 136.08 30.03
*31 I *C 136.08 35.07
*32 I *C 136.08 40.11
*33 I *C 136.08 45.15
*34 I *C 136.08 50.19
*35 I *C 95.97 0
*36 I *C 101.01 0
*37 I *C 106.05 0
*38 I *C 111.09 0
*39 I *C 116.13 0
*40 I *C 121.17 0
*41 I *C 126.21 0
*42 I *C 131.25 0
*43 I *C 55.65 0
*44 I *C 60.69 0
*45 I *C 65.73 0
*46 I *C 70.77 0
*47 I *C 75.81 0
*48 I *C 80.85 0
*49 I *C 85.89 0
*50 I *C 90.93 0
*51 I *C 15.33 0
*52 I *C 20.37 0
*53 I *C 25.41 0
*54 I *C 30.45 0
*55 I *C 35.49 0
*56 I *C 40.53 0
*57 I *C 45.57 0
*58 I *C 50.61 0
*59 I *C 0 37.17
*60 I *C 0 32.13
*61 I *C 0 27.09
*62 I *C 0 22.05
*63 I *C 0 17.01
*64 I *C 0 11.97
*65 I *C 0 6.93
*66 I *C 0 1.89
*67 I *C 0 77.49
*68 I *C 0 72.45
*69 I *C 0 67.41
*70 I *C 0 62.37
*71 I *C 0 57.33
*72 I *C 0 52.29
*73 I *C 0 47.25
*74 I *C 0 42.21
*75 I *C 0 117.81
*76 I *C 0 112.77
*77 I *C 0 107.73
*78 I *C 0 102.69
*79 I *C 0 97.65
*80 I *C 0 92.61
*81 I *C 0 87.57
*82 I *C 0 82.53
*83 I *C 40.11 135.24
*84 I *C 35.07 135.24
*85 I *C 30.03 135.24
*86 I *C 24.99 135.24
*87 I *C 19.95 135.24
*88 I *C 14.91 135.24
*89 I *C 9.87 135.24
*90 I *C 4.83 135.24
*91 I *C 80.43 135.24
*92 I *C 75.39 135.24
*93 I *C 70.35 135.24
*94 I *C 65.31 135.24
*95 I *C 60.27 135.24
*96 I *C 55.23 135.24
*97 I *C 50.19 135.24
*98 I *C 45.15 135.24
*99 I *C 120.75 135.24
*100 I *C 115.71 135.24
*101 I *C 110.67 135.24
*102 I *C 105.63 135.24
*103 I *C 100.59 135.24
*104 I *C 95.55 135.24
*105 I *C 90.51 135.24
*106 I *C 85.47 135.24
*107 I *C 130.83 135.24
*108 I *C 10.29 0
*109 I *C 125.79 135.24
*110 O *C 5.25 0
*111 O *C 136.08 4.83
*547 O *C 136.08 9.87
*112 I *C 0 127.89
*113 I *C 0 122.85
*114 O *C 0 132.93


*D_NET *1 0.0901913

*CONN
*I *643:RN I *C 109.83 95.55 *L 0.0037 *D SDFRRQJIX1
*I *644:RN I *C 111.09 100.17 *L 0.0037 *D SDFRRQJIX1
*I *645:RN I *C 108.99 107.73 *L 0.0037 *D SDFRRQJIX1
*I *641:RN I *C 101.01 103.11 *L 0.0037 *D SDFRRQJIX1
*I *640:RN I *C 98.07 107.73 *L 0.0037 *D SDFRRQJIX1
*I *642:RN I *C 100.17 100.17 *L 0.0037 *D SDFRRQJIX1
*I *676:RN I *C 98.07 95.55 *L 0.0036 *D SDFRRSJIX1
*I *671:RN I *C 101.85 92.61 *L 0.0036 *D SDFRRSJIX1
*I *637:RN I *C 87.15 107.73 *L 0.0037 *D SDFRRQJIX1
*I *638:RN I *C 87.99 100.17 *L 0.0037 *D SDFRRQJIX1
*I *635:RN I *C 76.23 107.73 *L 0.0037 *D SDFRRQJIX1
*I *639:RN I *C 86.73 95.55 *L 0.0037 *D SDFRRQJIX1
*I *666:RN I *C 89.67 92.61 *L 0.0036 *D SDFRRSJIX1
*I *636:RN I *C 66.99 103.11 *L 0.0037 *D SDFRRQJIX1
*I *634:RN I *C 77.91 103.11 *L 0.0037 *D SDFRRQJIX1
*I *661:RN I *C 87.99 87.99 *L 0.0036 *D SDFRRSJIX1
*I *656:RN I *C 87.57 80.43 *L 0.0036 *D SDFRRSJIX1
*I *632:RN I *C 64.47 107.73 *L 0.0037 *D SDFRRQJIX1
*I *647:RN I *C 77.49 85.05 *L 0.0037 *D SDFRRQJIX1
*I *646:RN I *C 65.73 92.61 *L 0.0037 *D SDFRRQJIX1
*I *633:RN I *C 67.83 95.55 *L 0.0037 *D SDFRRQJIX1
*I *651:RN I *C 75.39 80.43 *L 0.0036 *D SDFRRSJIX1
*I *629:RN I *C 53.55 95.55 *L 0.0037 *D SDFRRQJIX1
*I *630:RN I *C 54.81 92.61 *L 0.0037 *D SDFRRQJIX1
*I *625:RN I *C 53.55 107.73 *L 0.0037 *D SDFRRQJIX1
*I *649:RN I *C 67.83 77.49 *L 0.0037 *D SDFRRQJIX1
*I *631:RN I *C 53.13 103.11 *L 0.0037 *D SDFRRQJIX1
*I *624:RN I *C 42.21 103.11 *L 0.0037 *D SDFRRQJIX1
*I *628:RN I *C 42.63 107.73 *L 0.0037 *D SDFRRQJIX1
*I *627:RN I *C 31.71 107.73 *L 0.0037 *D SDFRRQJIX1
*I *626:RN I *C 31.29 103.11 *L 0.0037 *D SDFRRQJIX1
*I *623:RN I *C 34.23 100.17 *L 0.0037 *D SDFRRQJIX1
*I *621:RN I *C 34.23 95.55 *L 0.0037 *D SDFRRQJIX1
*I *619:RN I *C 32.55 92.61 *L 0.0037 *D SDFRRQJIX1
*I *618:RN I *C 32.13 85.05 *L 0.0037 *D SDFRRQJIX1
*I *615:RN I *C 32.13 77.49 *L 0.0037 *D SDFRRQJIX1
*I *614:RN I *C 32.55 72.87 *L 0.0037 *D SDFRRQJIX1
*I *612:RN I *C 34.23 69.93 *L 0.0037 *D SDFRRQJIX1
*I *613:RN I *C 44.31 72.87 *L 0.0037 *D SDFRRQJIX1
*I *610:RN I *C 31.29 65.31 *L 0.0037 *D SDFRRQJIX1
*I *620:RN I *C 44.31 80.43 *L 0.0037 *D SDFRRQJIX1
*I *616:RN I *C 45.99 69.93 *L 0.0037 *D SDFRRQJIX1
*I *608:RN I *C 34.23 62.37 *L 0.0037 *D SDFRRQJIX1
*I *617:RN I *C 45.15 87.99 *L 0.0037 *D SDFRRQJIX1
*I *622:RN I *C 43.89 92.61 *L 0.0037 *D SDFRRQJIX1
*I *598:RN I *C 32.55 54.81 *L 0.0037 *D SDFRRQJIX1
*I *607:RN I *C 34.23 47.25 *L 0.0037 *D SDFRRQJIX1
*I *611:RN I *C 45.15 65.31 *L 0.0037 *D SDFRRQJIX1
*I *609:RN I *C 47.67 62.37 *L 0.0037 *D SDFRRQJIX1
*I *657:RN I *C 56.49 65.31 *L 0.0036 *D SDFRRSJIX1
*I *652:RN I *C 55.65 72.87 *L 0.0036 *D SDFRRSJIX1
*I *650:RN I *C 53.13 77.49 *L 0.0037 *D SDFRRQJIX1
*I *648:RN I *C 55.23 80.43 *L 0.0037 *D SDFRRQJIX1
*I *663:RN I *C 51.87 57.75 *L 0.0036 *D SDFRRSJIX1
*I *606:RN I *C 31.71 42.63 *L 0.0037 *D SDFRRQJIX1
*I *668:RN I *C 64.05 57.75 *L 0.0036 *D SDFRRSJIX1
*I *603:RN I *C 32.13 39.69 *L 0.0037 *D SDFRRQJIX1
*I *605:RN I *C 42.63 42.63 *L 0.0037 *D SDFRRQJIX1
*I *604:RN I *C 43.05 39.69 *L 0.0037 *D SDFRRQJIX1
*I *658:RN I *C 64.05 54.81 *L 0.0036 *D SDFRRSJIX1
*I *599:RN I *C 31.71 32.13 *L 0.0037 *D SDFRRQJIX1
*I *600:RN I *C 42.63 32.13 *L 0.0037 *D SDFRRQJIX1
*I *602:RN I *C 31.29 24.57 *L 0.0037 *D SDFRRQJIX1
*I *601:RN I *C 42.21 24.57 *L 0.0037 *D SDFRRQJIX1
*I *662:RN I *C 77.07 54.81 *L 0.0036 *D SDFRRSJIX1
*I *664:RN I *C 53.13 35.07 *L 0.0037 *D SDFRRQJIX1
*I *659:RN I *C 53.55 42.63 *L 0.0037 *D SDFRRQJIX1
*I *669:RN I *C 53.55 32.13 *L 0.0037 *D SDFRRQJIX1
*I *653:RN I *C 53.55 50.19 *L 0.0036 *D SDFRRSJIX1
*I *654:RN I *C 53.55 47.25 *L 0.0037 *D SDFRRQJIX1
*I *667:RN I *C 77.07 50.19 *L 0.0036 *D SDFRRSJIX1
*I *660:RN I *C 53.13 24.57 *L 0.0037 *D SDFRRQJIX1
*I *655:RN I *C 64.05 24.57 *L 0.0037 *D SDFRRQJIX1
*I *665:RN I *C 74.97 24.57 *L 0.0037 *D SDFRRQJIX1
*I *670:RN I *C 85.89 24.57 *L 0.0037 *D SDFRRQJIX1
*I *548:Q O *C 113.19 95.13 *L 0 *D BUJIX1

*CAP
1 *643:RN 5.28444e-05
2 *644:RN 5.28444e-05
3 *645:RN 5.28444e-05
4 *641:RN 5.28444e-05
5 *640:RN 5.28444e-05
6 *642:RN 5.28444e-05
7 *676:RN 5.28444e-05
8 *671:RN 5.28444e-05
9 *637:RN 5.28444e-05
10 *638:RN 5.28444e-05
11 *635:RN 5.28444e-05
12 *639:RN 5.28444e-05
13 *666:RN 5.28444e-05
14 *636:RN 5.28444e-05
15 *634:RN 5.28444e-05
16 *661:RN 5.28444e-05
17 *656:RN 5.28444e-05
18 *632:RN 5.28444e-05
19 *647:RN 5.28444e-05
20 *646:RN 5.28444e-05
21 *633:RN 5.28444e-05
22 *651:RN 5.28444e-05
23 *629:RN 5.28444e-05
24 *630:RN 5.28444e-05
25 *625:RN 5.28444e-05
26 *649:RN 5.28444e-05
27 *631:RN 5.28444e-05
28 *624:RN 5.28444e-05
29 *628:RN 5.28444e-05
30 *627:RN 5.28444e-05
31 *626:RN 5.28444e-05
32 *623:RN 5.28444e-05
33 *621:RN 5.28444e-05
34 *619:RN 5.28444e-05
35 *618:RN 5.28444e-05
36 *615:RN 5.28444e-05
37 *614:RN 5.28444e-05
38 *612:RN 5.28444e-05
39 *613:RN 8.39401e-05
40 *610:RN 5.28444e-05
41 *620:RN 5.28444e-05
42 *616:RN 5.28444e-05
43 *608:RN 5.28444e-05
44 *617:RN 5.28444e-05
45 *622:RN 5.28444e-05
46 *598:RN 5.28444e-05
47 *607:RN 5.28444e-05
48 *611:RN 5.28444e-05
49 *609:RN 5.28444e-05
50 *657:RN 5.28444e-05
51 *652:RN 5.28444e-05
52 *650:RN 5.28444e-05
53 *648:RN 5.28444e-05
54 *663:RN 5.28444e-05
55 *606:RN 5.28444e-05
56 *668:RN 5.28444e-05
57 *603:RN 5.28444e-05
58 *605:RN 5.28444e-05
59 *604:RN 5.28444e-05
60 *658:RN 5.28444e-05
61 *599:RN 5.28444e-05
62 *600:RN 5.28444e-05
63 *602:RN 5.28444e-05
64 *601:RN 5.28444e-05
65 *662:RN 5.28444e-05
66 *664:RN 5.28444e-05
67 *659:RN 5.28444e-05
68 *669:RN 5.28444e-05
69 *653:RN 5.28444e-05
70 *654:RN 5.28444e-05
71 *667:RN 5.28444e-05
72 *660:RN 5.28444e-05
73 *655:RN 5.28444e-05
74 *665:RN 5.28444e-05
75 *670:RN 5.28444e-05
76 *548:Q 2.57807e-05
77 *1:79 7.90324e-05
78 *1:80 0.000510177
79 *1:81 0.000210217
80 *1:82 0.000633624
81 *1:83 0.000210013
82 *1:84 0.000236812
83 *1:85 0.00041799
84 *1:86 0.000331973
85 *1:87 0.000313177
86 *1:88 0.00037716
87 *1:89 7.81975e-05
88 *1:90 0.000232536
89 *1:91 9.92945e-05
90 *1:92 6.66308e-05
91 *1:93 0.000426726
92 *1:94 0.000586909
93 *1:95 0.000225673
94 *1:96 0.000152994
95 *1:97 0.000350952
96 *1:98 0.000636413
97 *1:99 0.000314032
98 *1:100 8.57118e-05
99 *1:101 0.000369768
100 *1:102 0.000553777
101 *1:103 0.000439474
102 *1:104 0.000139025
103 *1:105 0.00029098
104 *1:106 0.000483664
105 *1:107 0.000214045
106 *1:108 0.000164765
107 *1:109 9.77061e-05
108 *1:110 0.000227241
109 *1:111 0.000193987
110 *1:112 0.000231884
111 *1:113 8.28812e-05
112 *1:114 0.00017403
113 *1:115 0.000151589
114 *1:116 0.000459431
115 *1:117 0.000368628
116 *1:118 6.26802e-05
117 *1:119 5.51455e-05
118 *1:120 0.0001511
119 *1:121 5.24167e-05
120 *1:122 0.000217731
121 *1:123 0.000457577
122 *1:124 0.000314786
123 *1:125 0.000152994
124 *1:126 0.00114914
125 *1:127 0.000886442
126 *1:128 0.000279352
127 *1:129 0.000164765
128 *1:130 0.000997547
129 *1:131 0.000732368
130 *1:132 0.000801748
131 *1:133 0.00065134
132 *1:134 0.000227241
133 *1:135 0.000114486
134 *1:136 0.000457577
135 *1:137 7.74847e-05
136 *1:138 7.74847e-05
137 *1:139 0.000106951
138 *1:140 0.000500871
139 *1:141 0.000564875
140 *1:142 7.81975e-05
141 *1:143 0.00133455
142 *1:144 0.000179488
143 *1:145 0.000652949
144 *1:146 0.0006155
145 *1:147 0.000666287
146 *1:148 0.000230275
147 *1:149 0.000300531
148 *1:150 0.00029322
149 *1:151 0.000143912
150 *1:152 0.000395793
151 *1:153 0.000340016
152 *1:154 9.98443e-05
153 *1:155 0.000148799
154 *1:156 0.000595523
155 *1:157 0.000505758
156 *1:158 0.000103388
157 *1:159 0.000213251
158 *1:160 0.000186778
159 *1:161 0.000104895
160 *1:162 0.000376997
161 *1:163 0.000376997
162 *1:164 6.47369e-05
163 *1:165 7.20679e-05
164 *1:166 0.000120086
165 *1:167 5.24167e-05
166 *1:168 0.000163767
167 *1:169 0.000319184
168 *1:170 0.00027644
169 *1:171 0.000126867
170 *1:172 0.000213251
171 *1:173 0.000652868
172 *1:174 0.000696385
173 *1:175 0.000125381
174 *1:176 0.000592468
175 *1:177 9.92945e-05
176 *1:178 0.00013876
177 *1:179 0.000249825
178 *1:180 0.000163176
179 *1:181 8.02746e-05
180 *1:182 0.000624765
181 *1:183 0.000846569
182 *1:184 0.000402045
183 *1:185 0.000219523
184 *1:186 0.000240294
185 *1:187 0.000338143
186 *1:188 0.000256137
187 *1:189 0.000748883
188 *1:190 0.000883652
189 *1:191 0.000385347
190 *1:192 7.63036e-05
191 *1:193 0.000973722
192 *1:194 0.000144564
193 *1:195 0.000282529
194 *1:196 0.000167208
195 *1:197 0.000125768
196 *1:198 0.000118437
197 *1:199 0.000602345
198 *1:200 0.000126399
199 *1:201 0.000268132
200 *1:202 0.000237749
201 *1:203 0.000273426
202 *1:204 0.00033012
203 *1:205 0.000145867
204 *1:206 0.000200381
205 *1:207 0.000276563
206 *1:208 0.00100738
207 *1:209 0.000842028
208 *1:210 5.78336e-05
209 *1:211 5.78336e-05
210 *1:212 0.000462261
211 *1:213 0.00058416
212 *1:214 0.000276155
213 *1:215 0.000790324
214 *1:216 0.000154257
215 *1:217 0.000480609
216 *1:218 0.000387607
217 *1:219 0.000552453
218 *1:220 9.33686e-05
219 *1:221 0.000282081
220 *1:222 0.000230744
221 *1:223 0.000121512
222 *1:224 0.000382557
223 *1:225 0.000282081
224 *1:226 0.000501034
225 *1:227 0.000106402
226 *1:228 0.000382557
227 *1:229 0.000602345
228 *1:230 0.000126399
229 *1:231 9.92945e-05
230 *1:232 7.98877e-05
231 *1:233 0.00017456
232 *1:234 0.000107298
233 *1:235 0.000108866
234 *1:236 0.000202743
235 *1:237 0.000307964
236 *1:238 0.000119414
237 *1:239 0.000929226
238 *1:240 6.67122e-05
239 *1:241 6.67122e-05
240 *1:242 0.000782423
241 *1:243 0.000539379
242 *1:244 0.000114832
243 *1:245 0.0001298
244 *1:246 0.000197469
245 *1:247 0.00027137
246 *1:248 0.000264059
247 *1:249 0.00110379
248 *1:250 0.000869336
249 *1:251 0.000989565
250 *1:252 0.000239582
251 *1:253 0.000155947
252 *1:254 0.000148636
253 *1:255 0.000169346
254 *1:256 0.000790324
255 *1:257 0.000169346
256 *1:258 0.000539379
257 *1:259 0.000114832
258 *1:260 0.000209993
259 *1:261 0.000822397
260 *1:262 0.000112755
261 *1:263 0.00078843
262 *1:264 0.000112755
263 *1:265 6.31689e-05
264 *1:266 0.000310326
265 *1:267 0.000261412
266 *1:268 0.000261351
267 *1:269 0.000154175
268 *1:270 0.000332685
269 *1:271 0.000298861
270 *1:272 4.77941e-05
271 *1:273 0.000294931
272 *1:274 0.000337939
273 *1:275 0.000695978
274 *1:276 0.000372232
275 *1:277 0.000844187
276 *1:278 4.5717e-05
277 *1:279 0.000154175
278 *1:280 6.47369e-05
279 *1:281 0.000132162
280 *1:282 0.000307516
281 *1:283 0.000114629
282 *1:284 0.000268743
283 *1:285 0.00049297
284 *1:286 0.000307516
285 *1:287 8.98049e-05
286 *1:288 8.98049e-05
287 *1:289 0.00034022
288 *1:290 0.000139289
289 *1:291 0.000695326
290 *1:292 0.000139289
291 *1:293 0.000128659
292 *1:294 0.00049297
293 *1:295 0.000111635
294 *1:296 0.000148962
295 *1:297 0.000607293
296 *1:298 0.000662174
297 *1:299 7.63036e-05
298 *1:300 0.000332909
299 *1:301 6.31282e-05
300 *1:302 0.000125238
301 *1:303 0.000121349
302 *1:304 8.35328e-05
303 *1:305 0.000139798
304 *1:306 0.00019755
305 *1:307 0.000184966
306 *1:308 0.000409681
307 *1:309 0.000202377
308 *1:310 6.93595e-05
309 *1:311 0.000404
310 *1:312 0.000656146
311 *1:313 0.000509668
312 *1:314 0.000198772
313 *1:315 0.000117113
314 *1:316 4.97083e-05
315 *1:317 0.000417013
316 *1:318 0.000247748
317 *1:319 0.000118722
318 *1:320 0.000247748
319 *1:321 7.01334e-05
320 *1:322 7.73626e-05
321 *1:323 0.00024508
322 *1:324 0.000286765
323 *1:325 0.00102117
324 *1:326 6.31282e-05
325 *1:327 0.00017122
326 *1:328 0.000438843
327 *1:329 0.000337064
328 *1:330 0.000437906
329 *1:331 0.00016729
330 *1:332 7.99895e-05
331 *1:333 0.000343214
332 *1:334 0.000275809
333 *1:335 4.5717e-05
334 *1:336 0.00016729
335 *1:337 0.000351685
336 *1:338 0.000351685
337 *1:339 0.000339976
338 *1:340 0.000121634
339 *1:341 0.000389908
340 *1:342 0.000114262
341 *1:343 0.000389908
342 *1:344 7.81975e-05
343 *1:345 0.00102117
344 *1:346 7.81975e-05
345 *1:347 8.35532e-05
346 *1:348 0.00024398
347 *1:349 0.00022716
348 *1:350 0.000106951
349 *1:351 0.000195107
350 *1:352 8.51212e-05
351 *1:353 4.77941e-05
352 *1:354 8.31866e-05
353 *1:355 0.000271085

*RES
1 *1:292 *670:RN 9
2 *1:264 *665:RN 9
3 *1:290 *1:292 0.92395
4 *1:262 *1:264 0.92395
5 *1:291 *1:290 9
6 *1:263 *1:262 9
7 *1:263 *1:291 4.80473
8 *1:259 *1:263 0.554398
9 *1:258 *1:259 0.184845
10 *1:243 *1:258 3.69594
11 *1:243 *1:244 0.184845
12 *1:234 *1:244 0.554398
13 *1:235 *655:RN 9
14 *1:233 *1:234 9
15 *1:233 *1:235 0.92395
16 *1:232 *1:233 0.369553
17 *1:231 *1:232 9
18 *1:137 *601:RN 9
19 *1:230 *1:231 0.577469
20 *1:148 *605:RN 9
21 *1:137 *1:138 0.369553
22 *1:229 *1:230 0.577469
23 *1:150 *622:RN 9
24 *1:164 *617:RN 9
25 *1:144 *600:RN 9
26 *1:147 *604:RN 9
27 *1:147 *1:148 1.29364
28 *1:139 *1:138 9
29 *1:199 *1:229 6.35243
30 *1:149 *1:150 1.84804
31 *1:164 *1:165 0.184845
32 *1:144 *1:146 0.92395
33 *1:146 *1:147 2.40244
34 *1:135 *1:139 0.554398
35 *1:199 *1:200 0.577469
36 *1:149 *1:157 0.184845
37 *1:157 *1:165 0.184845
38 *1:145 *1:146 9
39 *1:135 *1:136 0.184845
40 *1:177 *1:200 0.577469
41 *1:156 *620:RN 9
42 *1:156 *1:157 3.51123
43 *1:133 *1:145 4.90869
44 *1:123 *1:136 2.95683
45 *1:178 *1:177 9
46 *1:155 *1:156 0.554398
47 *1:133 *1:134 0.288803
48 *1:122 *1:123 0.184845
49 *1:179 *660:RN 9
50 *1:178 *1:179 1.29364
51 *1:155 *1:163 0.184845
52 *1:110 *1:134 2.02121
53 *1:79 *602:RN 9
54 *1:81 *1:122 1.29364
55 *1:179 *1:180 0.92395
56 *1:162 *1:163 2.21759
57 *1:109 *1:110 0.288803
58 *1:79 *1:80 0.369553
59 *1:80 *1:81 9
60 *1:180 *1:201 0.369553
61 *1:167 *616:RN 9
62 *1:154 *1:162 0.184845
63 *1:91 *1:109 0.577469
64 *1:82 *599:RN 9
65 *1:80 *1:82 2.95683
66 *1:201 *1:202 1.47835
67 *1:166 *1:167 0.184845
68 *1:153 *613:RN 9
69 *1:153 *1:154 0.554398
70 *1:92 *1:91 9
71 *1:82 *1:83 1.1088
72 *1:194 *1:202 0.184845
73 *1:152 *1:166 0.554398
74 *1:152 *1:153 1.47835
75 *1:92 *1:93 0.184845
76 *1:83 *1:93 0.184845
77 *1:195 *669:RN 9
78 *1:194 *1:195 0.92395
79 *1:151 *1:152 1.1088
80 *1:94 *603:RN 9
81 *1:93 *1:94 2.21759
82 *1:195 *1:196 0.92395
83 *1:151 *1:161 0.184845
84 *1:95 *606:RN 9
85 *1:94 *1:95 1.29364
86 *1:181 *1:196 0.184845
87 *1:160 *611:RN 9
88 *1:160 *1:161 0.739243
89 *1:274 *667:RN 9
90 *1:96 *1:95 9
91 *1:182 *664:RN 9
92 *1:181 *1:182 0.369553
93 *1:158 *1:160 0.554398
94 *1:236 *658:RN 9
95 *1:275 *662:RN 9
96 *1:274 *1:275 2.03275
97 *1:96 *1:125 1.1088
98 *1:183 *659:RN 9
99 *1:182 *1:183 3.32639
100 *1:198 *653:RN 9
101 *1:159 *1:158 9
102 *1:237 *668:RN 9
103 *1:236 *1:237 1.29364
104 *1:275 *1:276 2.03275
105 *1:124 *1:125 9
106 *1:184 *654:RN 9
107 *1:183 *1:184 2.03275
108 *1:197 *1:198 0.554398
109 *1:159 *1:172 1.29364
110 *1:237 *1:238 0.739243
111 *1:277 *1:276 9
112 *1:126 *607:RN 9
113 *1:124 *1:126 2.03275
114 *1:184 *1:185 0.739243
115 *1:185 *1:197 0.184845
116 *1:171 *1:172 9
117 *1:239 *1:238 9
118 *1:239 *1:277 5.72882
119 *1:126 *1:127 3.51123
120 *1:111 *598:RN 9
121 *1:173 *1:185 0.554398
122 *1:170 *609:RN 9
123 *1:170 *1:171 0.739243
124 *1:227 *1:239 0.554398
125 *1:115 *1:127 0.369553
126 *1:111 *1:112 0.739243
127 *1:119 *608:RN 9
128 *1:174 *663:RN 9
129 *1:173 *1:174 3.88078
130 *1:168 *1:170 1.29364
131 *1:227 *1:228 0.184845
132 *1:115 *1:116 0.554398
133 *1:112 *1:116 0.369553
134 *1:118 *1:119 0.184845
135 *1:174 *1:175 0.739243
136 *1:169 *1:168 9
137 *1:224 *1:228 2.40244
138 *1:116 *1:117 2.40244
139 *1:117 *1:118 0.184845
140 *1:176 *1:175 9
141 *1:169 *1:176 1.84804
142 *1:223 *1:224 0.184845
143 *1:113 *1:117 0.184845
144 *1:176 *1:218 1.84804
145 *1:218 *1:223 0.554398
146 *1:113 *1:114 0.554398
147 *1:278 *647:RN 9
148 *1:78 *1:278 0.256805
149 *1:217 *1:218 9
150 *1:84 *1:114 0.739243
151 *1:279 *1:278 9
152 *1:219 *657:RN 9
153 *1:217 *1:219 2.58714
154 *1:257 *649:RN 9
155 *1:85 *610:RN 9
156 *1:84 *1:85 0.92395
157 *1:269 *1:279 0.92395
158 *1:219 *1:220 0.554398
159 *1:255 *1:257 1.1088
160 *1:85 *1:86 1.66319
161 *1:121 *612:RN 9
162 *1:265 *651:RN 9
163 *1:268 *1:269 9
164 *1:353 *644:RN 9
165 *1:354 *548:Q 0.288803
166 *1:212 *1:220 0.184845
167 *1:256 *1:255 9
168 *1:86 *1:100 0.369553
169 *1:120 *1:121 0.184845
170 *1:265 *1:266 0.369553
171 *1:266 *1:268 1.66319
172 *1:346 *645:RN 9
173 *1:352 *1:353 0.184845
174 *1:354 *1:355 0.577469
175 *1:213 *652:RN 9
176 *1:212 *1:213 2.77199
177 *1:215 *1:256 5.35927
178 *1:100 *1:101 0.184845
179 *1:101 *1:120 0.739243
180 *1:267 *1:266 9
181 *1:344 *1:346 0.369553
182 *1:347 *643:RN 9
183 *1:351 *1:352 0.369553
184 *1:348 *1:355 1.73254
185 *1:213 *1:214 0.92395
186 *1:214 *1:215 9
187 *1:102 *614:RN 9
188 *1:101 *1:102 1.47835
189 *1:267 *1:284 1.29364
190 *1:345 *1:344 9
191 *1:347 *1:349 0.739243
192 *1:349 *1:351 1.1088
193 *1:349 *1:348 9
194 *1:214 *1:216 1.1088
195 *1:103 *615:RN 9
196 *1:102 *1:103 2.03275
197 *1:284 *1:285 0.184845
198 *1:325 *1:345 4.80473
199 *1:326 *640:RN 9
200 *1:350 *1:349 9
201 *1:210 *1:216 0.184845
202 *1:103 *1:104 1.1088
203 *1:285 *1:294 3.32639
204 *1:335 *641:RN 9
205 *1:77 *1:335 0.256805
206 *1:324 *1:325 9
207 *1:324 *1:326 0.369553
208 *1:342 *1:350 0.554398
209 *1:210 *1:211 0.184845
210 *1:97 *1:104 0.184845
211 *1:293 *1:294 0.184845
212 *1:321 *676:RN 9
213 *1:334 *642:RN 9
214 *1:336 *1:335 9
215 *1:323 *1:324 1.29364
216 *1:342 *1:343 0.184845
217 *1:206 *1:211 0.184845
218 *1:186 *650:RN 9
219 *1:98 *618:RN 9
220 *1:97 *1:98 2.21759
221 *1:301 *656:RN 9
222 *1:293 *1:303 0.739243
223 *1:321 *1:322 0.369553
224 *1:333 *1:334 1.66319
225 *1:331 *1:336 1.1088
226 *1:323 *1:332 0.184845
227 *1:337 *671:RN 9
228 *1:341 *1:343 2.58714
229 *1:207 *648:RN 9
230 *1:206 *1:207 1.1088
231 *1:186 *1:187 1.84804
232 *1:98 *1:99 1.47835
233 *1:301 *1:302 0.369553
234 *1:302 *1:303 9
235 *1:322 *1:327 0.184845
236 *1:327 *1:333 0.554398
237 *1:330 *1:331 9
238 *1:330 *1:332 0.369553
239 *1:337 *1:338 2.03275
240 *1:340 *1:341 0.184845
241 *1:207 *1:208 0.554398
242 *1:187 *1:208 0.739243
243 *1:99 *1:105 0.184845
244 *1:302 *1:304 0.369553
245 *1:327 *1:328 0.369553
246 *1:328 *1:330 2.58714
247 *1:339 *1:338 9
248 *1:339 *1:340 0.554398
249 *1:208 *1:209 3.32639
250 *1:106 *619:RN 9
251 *1:105 *1:106 1.84804
252 *1:304 *1:311 0.184845
253 *1:316 *666:RN 9
254 *1:329 *1:328 9
255 *1:329 *1:339 1.29364
256 *1:203 *1:209 0.184845
257 *1:106 *1:107 1.29364
258 *1:312 *661:RN 9
259 *1:311 *1:312 2.58714
260 *1:315 *1:316 0.184845
261 *1:319 *1:329 0.554398
262 *1:204 *630:RN 9
263 *1:203 *1:204 1.47835
264 *1:108 *1:107 9
265 *1:312 *1:313 1.84804
266 *1:313 *1:315 0.554398
267 *1:319 *1:320 0.184845
268 *1:204 *1:205 0.369553
269 *1:108 *1:129 0.92395
270 *1:87 *626:RN 9
271 *1:313 *1:314 1.1088
272 *1:295 *639:RN 9
273 *1:318 *1:320 1.47835
274 *1:188 *1:205 0.554398
275 *1:128 *621:RN 9
276 *1:128 *1:129 9
277 *1:88 *627:RN 9
278 *1:87 *1:88 2.03275
279 *1:305 *1:314 0.184845
280 *1:295 *1:296 0.554398
281 *1:317 *1:318 0.184845
282 *1:189 *629:RN 9
283 *1:188 *1:189 0.92395
284 *1:140 *624:RN 9
285 *1:130 *623:RN 9
286 *1:128 *1:130 2.03275
287 *1:88 *1:89 0.369553
288 *1:305 *1:306 0.92395
289 *1:296 *1:306 0.369553
290 *1:308 *1:317 2.77199
291 *1:190 *631:RN 9
292 *1:189 *1:190 3.32639
293 *1:141 *628:RN 9
294 *1:140 *1:141 2.03275
295 *1:130 *1:131 3.69594
296 *1:90 *1:89 9
297 *1:306 *1:307 0.184845
298 *1:307 *1:308 9
299 *1:310 *638:RN 9
300 *1:191 *625:RN 9
301 *1:190 *1:191 2.03275
302 *1:141 *1:142 0.369553
303 *1:132 *1:131 9
304 *1:90 *1:132 1.29364
305 *1:307 *1:309 1.1088
306 *1:309 *1:310 0.184845
307 *1:245 *646:RN 9
308 *1:254 *633:RN 9
309 *1:191 *1:192 0.369553
310 *1:143 *1:142 9
311 *1:132 *1:143 3.51123
312 *1:297 *1:309 0.184845
313 *1:245 *1:246 0.739243
314 *1:253 *1:254 0.554398
315 *1:193 *1:192 9
316 *1:143 *1:193 4.80473
317 *1:298 *637:RN 9
318 *1:297 *1:298 3.51123
319 *1:246 *1:250 0.554398
320 *1:250 *1:253 0.184845
321 *1:193 *1:222 1.29364
322 *1:298 *1:299 0.369553
323 *1:251 *636:RN 9
324 *1:250 *1:251 3.88078
325 *1:221 *1:222 0.184845
326 *1:300 *1:299 9
327 *1:251 *1:252 0.92395
328 *1:240 *632:RN 9
329 *1:221 *1:225 1.66319
330 *1:289 *1:300 1.84804
331 *1:247 *1:252 0.184845
332 *1:240 *1:241 0.369553
333 *1:225 *1:226 0.184845
334 *1:288 *1:289 0.184845
335 *1:247 *1:248 1.47835
336 *1:242 *1:241 9
337 *1:226 *1:242 1.84804
338 *1:287 *1:288 0.369553
339 *1:249 *1:248 9
340 *1:242 *1:249 1.1088
341 *1:286 *1:287 0.184845
342 *1:249 *1:261 3.14154
343 *1:282 *1:286 2.03275
344 *1:280 *634:RN 9
345 *1:260 *1:261 0.184845
346 *1:282 *1:283 0.184845
347 *1:280 *1:281 0.184845
348 *1:260 *1:273 1.1088
349 *1:273 *1:283 0.554398
350 *1:270 *1:281 0.554398
351 *1:272 *1:273 9
352 *1:271 *635:RN 9
353 *1:270 *1:271 1.84804
354 *1:271 *1:272 0.184845
355 *1:76 *1:271 0.0811615
*END

*D_NET *2 0.0607812

*CONN
*I *670:SE I *C 77.07 24.57 *L 0.0028 *D SDFRRQJIX1
*I *669:SE I *C 44.73 32.13 *L 0.0028 *D SDFRRQJIX1
*I *668:SE I *C 54.81 57.75 *L 0.0028 *D SDFRRSJIX1
*I *667:SE I *C 67.83 50.19 *L 0.0028 *D SDFRRSJIX1
*I *665:SE I *C 66.15 24.57 *L 0.0028 *D SDFRRQJIX1
*I *664:SE I *C 44.31 35.07 *L 0.0028 *D SDFRRQJIX1
*I *663:SE I *C 42.63 57.75 *L 0.0028 *D SDFRRSJIX1
*I *662:SE I *C 67.83 54.81 *L 0.0028 *D SDFRRSJIX1
*I *660:SE I *C 44.31 24.57 *L 0.0028 *D SDFRRQJIX1
*I *659:SE I *C 44.73 42.63 *L 0.0028 *D SDFRRQJIX1
*I *658:SE I *C 54.81 54.81 *L 0.0028 *D SDFRRSJIX1
*I *657:SE I *C 47.25 65.31 *L 0.0028 *D SDFRRSJIX1
*I *656:SE I *C 78.33 80.43 *L 0.0028 *D SDFRRSJIX1
*I *655:SE I *C 55.23 24.57 *L 0.0028 *D SDFRRQJIX1
*I *654:SE I *C 44.73 47.25 *L 0.0028 *D SDFRRQJIX1
*I *653:SE I *C 44.31 50.19 *L 0.0028 *D SDFRRSJIX1
*I *652:SE I *C 46.41 72.87 *L 0.0028 *D SDFRRSJIX1
*I *651:SE I *C 66.15 80.43 *L 0.0028 *D SDFRRSJIX1
*I *650:SE I *C 44.31 77.49 *L 0.0028 *D SDFRRQJIX1
*I *649:SE I *C 59.01 77.49 *L 0.0028 *D SDFRRQJIX1
*I *648:SE I *C 46.41 80.43 *L 0.0028 *D SDFRRQJIX1
*I *647:SE I *C 68.67 85.05 *L 0.0028 *D SDFRRQJIX1
*I *646:SE I *C 56.91 92.61 *L 0.0028 *D SDFRRQJIX1
*I *626:SE I *C 22.47 103.11 *L 0.0028 *D SDFRRQJIX1
*I *623:SE I *C 25.41 100.17 *L 0.0028 *D SDFRRQJIX1
*I *622:SE I *C 35.07 92.61 *L 0.0028 *D SDFRRQJIX1
*I *621:SE I *C 25.41 95.55 *L 0.0028 *D SDFRRQJIX1
*I *620:SE I *C 35.49 80.43 *L 0.0028 *D SDFRRQJIX1
*I *619:SE I *C 23.73 92.61 *L 0.0028 *D SDFRRQJIX1
*I *618:SE I *C 23.31 85.05 *L 0.0028 *D SDFRRQJIX1
*I *617:SE I *C 36.33 87.99 *L 0.0028 *D SDFRRQJIX1
*I *616:SE I *C 37.17 69.93 *L 0.0028 *D SDFRRQJIX1
*I *615:SE I *C 23.31 77.49 *L 0.0028 *D SDFRRQJIX1
*I *614:SE I *C 23.73 72.87 *L 0.0028 *D SDFRRQJIX1
*I *613:SE I *C 35.49 72.87 *L 0.0028 *D SDFRRQJIX1
*I *612:SE I *C 25.41 69.93 *L 0.0028 *D SDFRRQJIX1
*I *611:SE I *C 36.33 65.31 *L 0.0028 *D SDFRRQJIX1
*I *610:SE I *C 22.47 65.31 *L 0.0028 *D SDFRRQJIX1
*I *609:SE I *C 38.85 62.37 *L 0.0028 *D SDFRRQJIX1
*I *608:SE I *C 25.41 62.37 *L 0.0028 *D SDFRRQJIX1
*I *607:SE I *C 25.41 47.25 *L 0.0028 *D SDFRRQJIX1
*I *606:SE I *C 22.89 42.63 *L 0.0028 *D SDFRRQJIX1
*I *605:SE I *C 33.81 42.63 *L 0.0028 *D SDFRRQJIX1
*I *604:SE I *C 34.23 39.69 *L 0.0028 *D SDFRRQJIX1
*I *603:SE I *C 23.31 39.69 *L 0.0028 *D SDFRRQJIX1
*I *602:SE I *C 22.47 24.57 *L 0.0028 *D SDFRRQJIX1
*I *601:SE I *C 33.39 24.57 *L 0.0028 *D SDFRRQJIX1
*I *600:SE I *C 33.81 32.13 *L 0.0028 *D SDFRRQJIX1
*I *599:SE I *C 22.89 32.13 *L 0.0028 *D SDFRRQJIX1
*I *598:SE I *C 23.73 54.81 *L 0.0028 *D SDFRRQJIX1
*I *549:Q O *C 48.93 87.57 *L 0 *D BUJIX1

*CAP
1 *670:SE 5.2856e-05
2 *669:SE 5.2856e-05
3 *668:SE 5.2856e-05
4 *667:SE 5.2856e-05
5 *665:SE 5.2856e-05
6 *664:SE 5.2856e-05
7 *663:SE 5.75056e-05
8 *662:SE 5.2856e-05
9 *660:SE 5.2856e-05
10 *659:SE 5.2856e-05
11 *658:SE 0.000166946
12 *657:SE 5.2856e-05
13 *656:SE 5.2856e-05
14 *655:SE 5.2856e-05
15 *654:SE 5.2856e-05
16 *653:SE 5.2856e-05
17 *652:SE 5.2856e-05
18 *651:SE 5.2856e-05
19 *650:SE 5.2856e-05
20 *649:SE 5.15401e-05
21 *648:SE 5.2856e-05
22 *647:SE 5.2856e-05
23 *646:SE 5.2856e-05
24 *626:SE 4.50921e-05
25 *623:SE 5.2856e-05
26 *622:SE 5.2856e-05
27 *621:SE 5.2856e-05
28 *620:SE 5.2856e-05
29 *619:SE 8.378e-05
30 *618:SE 7.17394e-05
31 *617:SE 5.2856e-05
32 *616:SE 5.15401e-05
33 *615:SE 4.59474e-05
34 *614:SE 9.08421e-05
35 *613:SE 5.2856e-05
36 *612:SE 5.2856e-05
37 *611:SE 5.2856e-05
38 *610:SE 4.50921e-05
39 *609:SE 5.2856e-05
40 *608:SE 5.2856e-05
41 *607:SE 5.2856e-05
42 *606:SE 3.2218e-05
43 *605:SE 5.2856e-05
44 *604:SE 5.2856e-05
45 *603:SE 4.5114e-05
46 *602:SE 5.2856e-05
47 *601:SE 5.2856e-05
48 *600:SE 5.2856e-05
49 *599:SE 2.577e-05
50 *598:SE 9.08421e-05
51 *549:Q 7.93059e-05
52 *2:54 0.000336173
53 *2:55 0.000305797
54 *2:56 0.000482283
55 *2:57 0.000121152
56 *2:58 0.000943359
57 *2:59 0.000727
58 *2:60 7.5402e-05
59 *2:61 0.000481823
60 *2:62 0.000427278
61 *2:63 0.000259082
62 *2:64 0.000121152
63 *2:65 0.00036997
64 *2:66 0.00086118
65 *2:67 0.000102049
66 *2:68 0.00117542
67 *2:69 0.00011409
68 *2:70 0.000905219
69 *2:71 0.000709455
70 *2:72 0.000251757
71 *2:73 7.5402e-05
72 *2:74 0.000326567
73 *2:75 9.70927e-05
74 *2:76 7.5424e-05
75 *2:77 0.000307464
76 *2:78 6.2528e-05
77 *2:79 0.000546522
78 *2:80 0.00036225
79 *2:81 0.000242589
80 *2:82 5.53343e-05
81 *2:83 0.000161375
82 *2:84 7.62574e-05
83 *2:85 0.000154182
84 *2:86 0.000454627
85 *2:87 6.23087e-05
86 *2:88 0.000564528
87 *2:89 0.000162011
88 *2:90 9.07105e-05
89 *2:91 0.000183505
90 *2:92 8.35826e-05
91 *2:93 0.000242589
92 *2:94 8.35826e-05
93 *2:95 4.57062e-05
94 *2:96 0.000183505
95 *2:97 4.57062e-05
96 *2:98 0.000444999
97 *2:99 0.000218311
98 *2:100 0.00033137
99 *2:101 0.000251757
100 *2:102 0.000127249
101 *2:103 0.000399797
102 *2:104 0.000238005
103 *2:105 7.68057e-05
104 *2:106 0.000735093
105 *2:107 0.000144268
106 *2:108 0.000119551
107 *2:109 0.000161726
108 *2:110 0.000294195
109 *2:111 0.000161726
110 *2:112 0.000166113
111 *2:113 0.00015859
112 *2:114 0.0003694
113 *2:115 0.000114836
114 *2:116 0.000456601
115 *2:117 0.000426225
116 *2:118 0.000539109
117 *2:119 0.000602492
118 *2:120 9.26405e-05
119 *2:121 0.00034863
120 *2:122 0.000202892
121 *2:123 0.000356153
122 *2:124 0.000147361
123 *2:125 8.00735e-05
124 *2:126 7.22658e-05
125 *2:127 0.000811921
126 *2:128 0.00102084
127 *2:129 0.00028086
128 *2:130 0.00017528
129 *2:131 0.00017528
130 *2:132 7.28798e-05
131 *2:133 0.000207761
132 *2:134 0.000304635
133 *2:135 0.00020763
134 *2:136 0.000109791
135 *2:137 8.80787e-05
136 *2:138 7.27483e-05
137 *2:139 0.000155234
138 *2:140 0.000339112
139 *2:141 0.000272548
140 *2:142 0.000311302
141 *2:143 0.000404601
142 *2:144 0.000552268
143 *2:145 0.000169183
144 *2:146 0.00033898
145 *2:147 0.000331677
146 *2:148 0.000400236
147 *2:149 0.000147032
148 *2:150 0.000421357
149 *2:151 0.000168898
150 *2:152 0.000146703
151 *2:153 0.00035249
152 *2:154 0.000146703
153 *2:155 6.8954e-05
154 *2:156 0.00141998
155 *2:157 0.000561524
156 *2:158 0.000514282
157 *2:159 7.64986e-05
158 *2:160 0.00013907
159 *2:161 9.18291e-05
160 *2:162 8.00735e-05
161 *2:163 8.00735e-05
162 *2:164 0.000202651
163 *2:165 0.000478007
164 *2:166 0.00021535
165 *2:167 0.000296871
166 *2:168 0.000204581
167 *2:169 0.000167034
168 *2:170 0.000467041
169 *2:171 0.00027665
170 *2:172 0.000154774
171 *2:173 7.64986e-05
172 *2:174 0.000214451
173 *2:175 0.000167209
174 *2:176 0.000317553
175 *2:177 0.000317333
176 *2:178 8.00735e-05
177 *2:179 0.000443486
178 *2:180 0.000455
179 *2:181 9.15878e-05
180 *2:182 0.000245331
181 *2:183 9.77507e-05
182 *2:184 0.000144181
183 *2:185 0.000421357
184 *2:186 0.000187913
185 *2:187 0.00032433
186 *2:188 0.000157932
187 *2:189 0.000720903
188 *2:190 6.31201e-05
189 *2:191 0.000183132
190 *2:192 0.000154774
191 *2:193 0.000171705
192 *2:194 0.000128499
193 *2:195 0.000128499
194 *2:196 6.4436e-05
195 *2:197 0.00020752
196 *2:198 0.00010694
197 *2:199 0.000164577
198 *2:200 0.000271627
199 *2:201 0.000133785
200 *2:202 0.000234123
201 *2:203 0.000245331
202 *2:204 0.000382318
203 *2:205 0.000132228
204 *2:206 5.52027e-05
205 *2:207 0.000128872
206 *2:208 0.000128872
207 *2:209 0.000546763
208 *2:210 0.000187913
209 *2:211 0.00041107
210 *2:212 0.00010376
211 *2:213 0.000899275
212 *2:214 0.000266912
213 *2:215 0.000177342
214 *2:216 7.25289e-05
215 *2:217 0.00138634
216 *2:218 7.25289e-05
217 *2:219 0.000605804
218 *2:220 0.000221644
219 *2:221 0.000122643
220 *2:222 0.000546763
221 *2:223 0.000122643
222 *2:224 9.73998e-05
223 *2:225 0.000183921
224 *2:226 8.185e-05
225 *2:227 0.000234387
226 *2:228 0.000151199
227 *2:229 0.000675723
228 *2:230 7.25289e-05
229 *2:231 0.00143731
230 *2:232 7.25289e-05
231 *2:233 0.000158107
232 *2:234 0.000675723
233 *2:235 0.000301235
234 *2:236 0.00015734
235 *2:237 0.000192738
236 *2:238 0.00028176
237 *2:239 0.000438902
238 *2:240 0.000899275
239 *2:241 0.000171354
240 *2:242 0.000212828
241 *2:243 0.000810934
242 *2:244 0.000212828
243 *2:245 7.27483e-05
244 *2:246 0.000750051
245 *2:247 7.27483e-05
246 *2:248 0.000212564
247 *2:249 0.000175236
248 *2:250 0.000632386
249 *2:251 8.51398e-05
250 *2:252 4.77897e-05

*RES
1 *2:113 *605:SE 9
2 *2:112 *2:113 0.739243
3 *2:112 *2:120 0.184845
4 *2:119 *604:SE 9
5 *2:119 *2:120 0.739243
6 *2:118 *2:119 2.77199
7 *2:111 *2:118 0.184845
8 *2:110 *600:SE 9
9 *2:110 *2:111 0.554398
10 *2:109 *2:110 0.554398
11 *2:109 *2:117 0.184845
12 *2:116 *2:117 2.21759
13 *2:247 *670:SE 9
14 *2:108 *2:116 0.369553
15 *2:232 *665:SE 9
16 *2:245 *2:247 0.369553
17 *2:107 *601:SE 9
18 *2:107 *2:108 0.369553
19 *2:218 *655:SE 9
20 *2:230 *2:232 0.369553
21 *2:246 *2:245 9
22 *2:105 *2:107 0.554398
23 *2:216 *2:218 0.369553
24 *2:231 *2:230 9
25 *2:231 *2:246 4.80473
26 *2:223 *646:SE 9
27 *2:106 *2:105 9
28 *2:217 *2:216 9
29 *2:217 *2:231 4.80473
30 *2:221 *2:223 0.739243
31 *2:106 *2:156 4.80473
32 *2:156 *2:217 4.80473
33 *2:222 *2:221 9
34 *2:155 *2:156 9
35 *2:209 *2:222 3.51123
36 *2:252 *656:SE 9
37 *2:157 *660:SE 9
38 *2:155 *2:157 0.369553
39 *2:208 *2:209 9
40 *2:251 *2:252 0.184845
41 *2:157 *2:158 3.14154
42 *2:207 *2:208 0.739243
43 *2:248 *2:251 0.369553
44 *2:158 *2:173 0.184845
45 *549:Q *2:207 9
46 *2:244 *647:SE 9
47 *2:248 *2:249 0.739243
48 *2:174 *669:SE 9
49 *2:173 *2:174 0.369553
50 *2:242 *2:244 1.29364
51 *2:250 *2:249 9
52 *2:174 *2:175 0.92395
53 *2:206 *549:Q 0.288803
54 *2:243 *2:242 9
55 *2:243 *2:250 3.88078
56 *2:159 *2:175 0.184845
57 *2:205 *2:206 0.288803
58 *2:237 *2:243 1.1088
59 *2:160 *664:SE 9
60 *2:159 *2:160 0.369553
61 *2:238 *667:SE 9
62 *2:241 *662:SE 9
63 *2:201 *2:205 0.866272
64 *2:236 *2:237 9
65 *2:160 *2:161 0.554398
66 *2:238 *2:239 1.1088
67 *2:239 *2:241 0.739243
68 *2:202 *2:201 9
69 *2:235 *651:SE 9
70 *2:235 *2:236 0.554398
71 *2:161 *2:176 0.184845
72 *2:240 *2:239 9
73 *2:200 *2:202 1.29364
74 *2:233 *2:235 0.554398
75 *2:176 *2:177 2.21759
76 *2:213 *2:240 5.72882
77 *2:190 *648:SE 9
78 *2:193 *2:200 0.369553
79 *2:234 *2:233 9
80 *2:162 *2:177 0.184845
81 *2:212 *2:213 9
82 *2:215 *668:SE 9
83 *2:190 *2:191 0.369553
84 *2:191 *2:193 1.1088
85 *2:229 *2:234 3.51123
86 *2:162 *2:163 0.369553
87 *2:212 *2:214 0.739243
88 *2:214 *2:215 1.29364
89 *2:192 *2:191 9
90 *2:226 *649:SE 0.577469
91 *2:228 *2:229 9
92 *2:163 *2:178 0.184845
93 *658:SE *2:214 9
94 *2:172 *2:192 0.92395
95 *2:227 *2:226 9
96 *2:227 *2:228 0.92395
97 *2:179 *659:SE 9
98 *2:178 *2:179 0.369553
99 *2:210 *658:SE 1.44374
100 *2:171 *2:172 9
101 *2:224 *2:227 0.554398
102 *2:180 *654:SE 9
103 *2:179 *2:180 1.84804
104 *2:210 *2:211 0.577469
105 *2:170 *650:SE 9
106 *2:170 *2:171 1.84804
107 *2:225 *2:224 9
108 *2:180 *2:181 0.554398
109 *2:204 *2:211 2.88748
110 *2:168 *2:170 1.1088
111 *2:220 *2:225 1.29364
112 *2:164 *2:181 0.184845
113 *2:203 *2:204 0.288803
114 *2:169 *2:168 9
115 *2:219 *2:220 0.369553
116 *2:165 *653:SE 9
117 *2:164 *2:165 0.739243
118 *2:182 *2:203 2.31001
119 *2:169 *2:189 0.92395
120 *2:189 *2:219 3.88078
121 *2:165 *2:167 2.40244
122 *2:182 *2:183 0.288803
123 *2:188 *2:189 9
124 *2:166 *2:167 9
125 *2:166 *2:183 0.577469
126 *2:187 *652:SE 9
127 *2:187 *2:188 0.739243
128 *2:151 *2:166 1.15494
129 *2:186 *2:187 1.1088
130 *2:152 *2:151 9
131 *2:186 *2:195 0.184845
132 *2:125 *622:SE 9
133 *2:152 *2:154 0.554398
134 *2:194 *2:195 0.92395
135 *2:124 *2:125 0.554398
136 *2:153 *2:154 9
137 *2:153 *663:SE 0.577469
138 *2:196 *657:SE 9
139 *2:194 *2:199 0.184845
140 *2:87 *599:SE 0.288803
141 *2:86 *602:SE 9
142 *2:124 *2:141 0.554398
143 *2:142 *2:153 2.59882
144 *2:196 *2:197 0.369553
145 *2:197 *2:199 0.92395
146 *2:88 *2:87 9
147 *2:86 *2:88 3.14154
148 *2:140 *617:SE 9
149 *2:140 *2:141 1.29364
150 *2:143 *2:142 9
151 *2:198 *2:197 9
152 *2:88 *2:89 0.92395
153 *2:139 *2:140 1.1088
154 *2:144 *609:SE 9
155 *2:143 *2:144 2.40244
156 *2:184 *2:198 0.554398
157 *2:54 *2:89 0.369553
158 *2:131 *2:139 0.184845
159 *2:144 *2:145 0.554398
160 *2:184 *2:185 0.369553
161 *2:54 *2:55 1.84804
162 *2:94 *607:SE 9
163 *2:130 *2:131 0.739243
164 *2:145 *2:146 0.184845
165 *2:150 *2:185 2.40244
166 *2:76 *603:SE 0.866272
167 *2:55 *2:75 0.184845
168 *2:53 *2:92 0.0811615
169 *2:92 *2:94 0.184845
170 *2:99 *621:SE 9
171 *2:102 *623:SE 9
172 *2:129 *2:130 0.184845
173 *2:146 *2:147 1.29364
174 *2:149 *2:150 0.369553
175 *2:78 *606:SE 0.577469
176 *2:77 *2:76 9
177 *2:75 *2:77 0.554398
178 *2:93 *2:92 9
179 *2:99 *2:100 1.1088
180 *2:100 *2:102 0.554398
181 *2:128 *620:SE 9
182 *2:128 *2:129 1.47835
183 *2:148 *2:147 9
184 *2:148 *2:149 0.554398
185 *2:79 *2:78 9
186 *2:77 *2:79 1.47835
187 *2:81 *2:93 1.47835
188 *2:101 *2:100 9
189 *2:73 *626:SE 0.577469
190 *2:127 *613:SE 9
191 *2:127 *2:128 3.51123
192 *2:132 *611:SE 9
193 *2:134 *2:148 1.29364
194 *2:137 *616:SE 0.577469
195 *2:79 *2:80 1.66319
196 *2:80 *2:81 9
197 *2:95 *608:SE 9
198 *2:52 *2:95 0.256805
199 *2:72 *2:101 1.66319
200 *2:74 *2:73 9
201 *2:126 *2:127 0.184845
202 *2:132 *2:133 0.369553
203 *2:133 *2:134 9
204 *2:138 *2:137 9
205 *2:80 *2:82 0.184845
206 *2:96 *2:95 9
207 *2:84 *615:SE 0.866272
208 *2:69 *619:SE 1.44374
209 *2:71 *2:72 9
210 *2:71 *2:74 2.03275
211 *2:123 *2:126 0.184845
212 *2:133 *2:135 1.1088
213 *2:135 *2:138 0.369553
214 *2:57 *598:SE 1.44374
215 *2:56 *2:82 0.184845
216 *2:91 *2:96 1.29364
217 *2:85 *2:84 9
218 *2:67 *618:SE 1.15494
219 *2:70 *2:69 9
220 *2:70 *2:71 2.58714
221 *2:121 *2:123 1.47835
222 *2:136 *2:135 9
223 *2:58 *2:57 9
224 *2:56 *2:58 3.51123
225 *2:90 *2:91 9
226 *2:83 *2:85 0.554398
227 *2:68 *2:67 9
228 *2:68 *2:70 3.32639
229 *2:122 *2:121 9
230 *2:122 *2:136 0.554398
231 *2:60 *610:SE 0.577469
232 *2:58 *2:59 3.14154
233 *2:59 *2:90 0.369553
234 *2:64 *614:SE 1.44374
235 *2:66 *2:83 0.184845
236 *2:66 *2:68 4.06563
237 *2:115 *2:122 0.554398
238 *2:61 *2:60 9
239 *2:59 *2:61 1.66319
240 *2:65 *2:64 9
241 *2:65 *2:66 1.29364
242 *2:114 *2:115 0.184845
243 *2:61 *2:62 1.66319
244 *2:62 *2:65 1.47835
245 *2:103 *2:114 2.40244
246 *2:63 *2:62 9
247 *2:103 *2:104 0.369553
248 *2:63 *2:98 1.66319
249 *2:98 *2:104 1.29364
250 *2:97 *612:SE 9
251 *2:97 *2:98 9
252 *2:51 *2:97 0.256805
*END

*D_NET *3 0.00658656

*CONN
*I *970:Q O *C 101.85 47.25 *L 0 *D SDFRRQJIX1
*I *969:B I *C 97.23 39.69 *L 0.00341 *D NA2JIX1
*I *968:B I *C 92.61 39.69 *L 0.00166 *D NO2JIX0
*I *949:SD I *C 93.03 61.95 *L 0.00147 *D SDFRQJIX1

*CAP
1 *970:Q 5.28473e-05
2 *969:B 4.9523e-05
3 *968:B 0.000139549
4 *949:SD 5.28473e-05
5 *3:4 8.98307e-05
6 *3:5 0.00053522
7 *3:6 0.00160192
8 *3:7 0.000643237
9 *3:8 0.00114856
10 *3:9 0.000388142
11 *3:10 0.000277167
12 *3:11 0.000209483
13 *3:12 0.000388142
14 *3:13 0.000135785
15 *3:14 0.000115521
16 *3:15 0.000115521
17 *3:16 0.000643237

*RES
1 *3:14 *970:Q 9
2 *3:13 *969:B 0.577469
3 *3:11 *949:SD 9
4 *3:14 *3:15 0.369553
5 *3:12 *3:13 0.866272
6 *3:10 *3:11 1.1088
7 *3:16 *3:15 9
8 *3:9 *3:12 2.59882
9 *3:8 *3:10 0.554398
10 *3:7 *3:16 4.43518
11 *3:9 *968:B 0.866272
12 *3:6 *3:8 4.80473
13 *3:6 *3:7 9
14 *3:5 *3:6 3.69594
15 *3:4 *968:B 0.577469
16 *3:4 *3:5 9
*END

*D_NET *4 0.00213404

*CONN
*I *951:Q O *C 101.85 70.35 *L 0 *D SDFRQJIX1
*I *913:B I *C 98.07 65.31 *L 0.00341 *D NA2JIX1
*I *912:B I *C 99.75 65.31 *L 0.0033 *D NO2JIX1
*I *896:B I *C 101.43 66.57 *L 0.0032 *D EN2JIX0
*I *678:SD I *C 102.69 61.95 *L 0.00147 *D SDFRRSJIX1

*CAP
1 *951:Q 5.15398e-05
2 *913:B 5.28493e-05
3 *912:B 5.74991e-05
4 *896:B 0.000244752
5 *678:SD 5.28493e-05
6 *4:5 7.7641e-05
7 *4:6 0.000149439
8 *4:7 7.7641e-05
9 *4:8 0.000284601
10 *4:9 0.000291498
11 *4:10 0.00034746
12 *4:11 0.00018221
13 *4:12 8.18507e-05
14 *4:13 0.00018221

*RES
1 *4:9 *678:SD 9
2 *951:Q *4:12 0.577469
3 *4:9 *4:10 1.47835
4 *4:13 *4:12 9
5 *896:B *4:10 9
6 *4:11 *4:13 1.1088
7 *896:B *4:11 9
8 *912:B *4:8 0.577469
9 *4:8 *896:B 1.15494
10 *4:6 *4:8 1.15494
11 *4:7 *4:6 9
12 *4:5 *4:7 0.554398
13 *913:B *4:5 9
*END

*D_NET *5 0.00272471

*CONN
*I *953:SD I *C 93.87 77.07 *L 0.00147 *D SDFRQJIX1
*I *673:QN O *C 113.595 77.76 *L 0 *D SDFRRSJIX1

*CAP
1 *953:SD 8.39265e-05
2 *673:QN 5.28507e-05
3 *5:4 4.5711e-05
4 *5:5 7.91257e-05
5 *5:6 0.00089637
6 *5:7 7.93582e-05
7 *5:8 0.00089637
8 *5:9 0.000198655
9 *5:10 0.000198655
10 *5:11 7.76348e-05
11 *5:12 4.5711e-05
12 *5:13 7.03172e-05

*RES
1 *5:3 *5:12 0.256805
2 *5:12 *673:QN 9
3 *5:13 *5:12 9
4 *5:11 *5:13 0.369553
5 *5:10 *5:11 0.184845
6 *5:9 *5:10 1.29364
7 *5:8 *5:9 0.184845
8 *5:6 *5:8 6.46806
9 *5:6 *5:7 0.184845
10 *5:5 *5:7 0.554398
11 *5:4 *953:SD 9
12 *5:4 *5:5 9
13 *5:2 *5:4 0.0439453
*END

*D_NET *6 0.00344863

*CONN
*I *973:B I *C 108.99 24.57 *L 0.0017 *D NA2I1JIX0
*I *961:Q O *C 101.85 32.13 *L 0 *D SDFRRQJIX1
*I *960:AN I *C 107.73 27.51 *L 0.00163 *D NA2I1JIX0
*I *959:B I *C 102.27 24.57 *L 0.00334 *D EO2JIX0
*I *955:SD I *C 103.95 31.71 *L 0.00147 *D SDFRRQJIX1

*CAP
1 *973:B 5.28475e-05
2 *961:Q 5.28475e-05
3 *960:AN 5.28475e-05
4 *959:B 5.5317e-05
5 *955:SD 5.28475e-05
6 *6:6 8.56305e-05
7 *6:7 0.00020983
8 *6:8 0.000273829
9 *6:9 0.000402351
10 *6:10 8.57215e-05
11 *6:11 0.000179607
12 *6:12 0.000337618
13 *6:13 5.93327e-05
14 *6:14 0.000195712
15 *6:15 6.66435e-05
16 *6:16 5.05178e-05
17 *6:17 0.00045848
18 *6:18 5.05178e-05
19 *6:19 5.64923e-05
20 *6:20 7.7851e-05
21 *6:21 0.000271408
22 *6:22 0.000271408
23 *6:23 4.89577e-05

*RES
1 *6:15 *955:SD 9
2 *6:14 *6:15 0.184845
3 *6:13 *961:Q 9
4 *6:12 *6:14 0.92395
5 *6:12 *6:13 0.369553
6 *6:21 *973:B 9
7 *6:6 *959:B 0.577469
8 *6:11 *6:12 1.1088
9 *6:21 *6:22 1.29364
10 *6:7 *6:6 9
11 *6:10 *6:11 0.184845
12 *6:23 *6:22 9
13 *6:7 *6:8 1.29364
14 *6:8 *6:10 0.369553
15 *6:19 *6:23 0.184845
16 *6:9 *6:8 9
17 *6:19 *6:20 0.184845
18 *6:18 *960:AN 9
19 *6:9 *6:17 2.77199
20 *6:17 *6:20 0.369553
21 *6:16 *6:18 0.184845
22 *6:16 *6:17 9
23 *6:5 *6:16 0.0811615
*END

*D_NET *7 0.00756119

*CONN
*I *970:SD I *C 93.03 46.83 *L 0.00147 *D SDFRRQJIX1
*I *966:Q O *C 103.95 35.07 *L 0 *D SDFRRQJIX1
*I *965:B I *C 96.81 24.57 *L 0.00171 *D NA2JIX0
*I *964:B I *C 98.91 24.57 *L 0.0033 *D NO2JIX1
*I *963:C I *C 94.29 27.51 *L 0.0034 *D EN3JIX0

*CAP
1 *970:SD 5.28463e-05
2 *966:Q 5.28463e-05
3 *965:B 7.80015e-05
4 *964:B 4.05352e-05
5 *963:C 5.28463e-05
6 *7:5 9.86542e-05
7 *7:6 0.000101545
8 *7:7 9.86542e-05
9 *7:8 7.92694e-05
10 *7:9 0.00020834
11 *7:10 0.000139462
12 *7:11 0.000538072
13 *7:12 0.000169084
14 *7:13 9.64148e-05
15 *7:14 6.77048e-05
16 *7:15 5.90196e-05
17 *7:16 0.00027371
18 *7:17 0.00077652
19 *7:18 0.000396596
20 *7:19 0.000593276
21 *7:20 0.000169084
22 *7:21 9.79552e-05
23 *7:22 0.000146038
24 *7:23 0.000538072
25 *7:24 0.000194714
26 *7:25 0.000187391
27 *7:26 0.000108133
28 *7:27 8.1651e-05
29 *7:28 0.000593276
30 *7:29 0.000765797
31 *7:30 0.000705663

*RES
1 *7:21 *964:B 0.577469
2 *7:20 *7:21 0.577469
3 *7:12 *7:20 1.15494
4 *7:12 *7:13 0.577469
5 *7:13 *965:B 0.288803
6 *7:14 *965:B 0.288803
7 *7:14 *7:15 0.288803
8 *7:8 *963:C 9
9 *7:16 *7:15 9
10 *7:8 *7:9 0.369553
11 *7:16 *7:17 1.66319
12 *7:9 *7:17 0.92395
13 *7:17 *7:18 2.40244
14 *7:19 *7:18 9
15 *7:19 *7:28 3.32639
16 *7:27 *7:28 9
17 *7:27 *7:29 0.369553
18 *7:29 *966:Q 9
19 *7:29 *7:30 3.14154
20 *7:24 *7:30 0.184845
21 *7:24 *7:25 1.29364
22 *7:26 *7:25 9
23 *7:22 *7:26 0.554398
24 *7:22 *7:23 0.369553
25 *7:11 *7:23 3.32639
26 *7:10 *7:11 0.369553
27 *7:7 *970:SD 9
28 *7:6 *7:10 0.739243
29 *7:5 *7:7 0.554398
30 *7:5 *7:6 9
*END

*D_NET *8 0.00333945

*CONN
*I *949:Q O *C 100.59 62.79 *L 0 *D SDFRQJIX1
*I *947:SD I *C 92.61 50.61 *L 0.00147 *D SDFRQJIX1
*I *911:B I *C 98.07 57.75 *L 0.00629 *D EO2JIX1
*I *906:B I *C 95.97 54.81 *L 0.00171 *D NA2JIX0
*I *904:B I *C 94.29 54.81 *L 0.00329 *D ON21JIX1

*CAP
1 *949:Q 2.5782e-05
2 *947:SD 5.75028e-05
3 *911:B 0.000110352
4 *906:B 5.28497e-05
5 *904:B 8.39276e-05
6 *8:5 9.40298e-05
7 *8:6 0.000143567
8 *8:7 0.000351348
9 *8:8 0.00040124
10 *8:9 0.000128708
11 *8:10 0.000193637
12 *8:11 0.00022564
13 *8:12 0.000211527
14 *8:13 0.000144039
15 *8:14 0.000238717
16 *8:15 0.00018026
17 *8:16 0.00020279
18 *8:17 0.00018026
19 *8:18 0.000229981
20 *8:19 8.32787e-05

*RES
1 *8:19 *949:Q 0.288803
2 *8:18 *8:19 0.577469
3 *8:16 *8:18 1.44374
4 *8:17 *8:16 9
5 *8:15 *8:17 1.1088
6 *911:B *8:15 9
7 *8:14 *911:B 0.577469
8 *8:12 *8:14 1.44374
9 *8:13 *8:12 9
10 *8:11 *906:B 9
11 *8:11 *8:13 0.92395
12 *8:9 *904:B 9
13 *8:10 *8:11 0.554398
14 *8:8 *8:9 0.369553
15 *8:8 *8:10 0.739243
16 *8:7 *8:8 1.66319
17 *8:6 *8:7 0.739243
18 *8:5 *947:SD 0.577469
19 *8:5 *8:6 9
*END

*D_NET *9 0.00178455

*CONN
*I *679:SD I *C 103.53 58.17 *L 0.00147 *D SDFRRQJIX1
*I *678:QN O *C 112.755 62.64 *L 0 *D SDFRRSJIX1

*CAP
1 *679:SD 5.2848e-05
2 *678:QN 5.2848e-05
3 *9:3 0.0001676
4 *9:4 0.00017492
5 *9:5 0.000105007
6 *9:6 9.76862e-05
7 *9:7 0.00054396
8 *9:8 4.57097e-05
9 *9:9 0.00054396

*RES
1 *9:3 *679:SD 9
2 *9:3 *9:4 0.92395
3 *9:4 *9:5 0.184845
4 *9:5 *9:6 0.554398
5 *9:7 *9:6 9
6 *9:7 *9:9 3.88078
7 *9:8 *9:9 9
8 *9:8 *678:QN 9
9 *9:2 *9:8 0.256805
*END

*D_NET *10 0.0642541

*CONN
*I *736:C I *C 27.93 87.99 *L 0.00157 *D AO22JIX0
*I *735:C I *C 24.99 87.99 *L 0.00157 *D AO22JIX0
*I *734:C I *C 31.71 87.99 *L 0.00157 *D AO22JIX0
*I *733:C I *C 40.53 77.49 *L 0.00157 *D AO22JIX0
*I *732:C I *C 24.57 80.43 *L 0.00157 *D AO22JIX0
*I *731:C I *C 27.93 80.43 *L 0.00157 *D AO22JIX0
*I *730:C I *C 37.59 77.49 *L 0.00157 *D AO22JIX0
*I *729:C I *C 24.15 69.93 *L 0.00157 *D AO22JIX0
*I *728:C I *C 35.07 65.31 *L 0.00157 *D AO22JIX0
*I *727:C I *C 24.15 62.37 *L 0.00157 *D AO22JIX0
*I *726:C I *C 32.97 57.75 *L 0.00157 *D AO22JIX0
*I *725:C I *C 24.99 57.75 *L 0.00157 *D AO22JIX0
*I *724:C I *C 24.15 50.19 *L 0.00157 *D AO22JIX0
*I *723:C I *C 38.85 35.07 *L 0.00157 *D AO22JIX0
*I *722:C I *C 24.15 47.25 *L 0.00157 *D AO22JIX0
*I *721:C I *C 38.85 47.25 *L 0.00157 *D AO22JIX0
*I *720:C I *C 24.99 35.07 *L 0.00157 *D AO22JIX0
*I *719:C I *C 27.51 50.19 *L 0.00157 *D AO22JIX0
*I *718:C I *C 28.35 27.51 *L 0.00157 *D AO22JIX0
*I *717:C I *C 41.79 27.51 *L 0.00157 *D AO22JIX0
*I *716:C I *C 38.43 27.51 *L 0.00157 *D AO22JIX0
*I *715:C I *C 107.31 110.67 *L 0.00157 *D AO22JIX0
*I *714:C I *C 24.99 27.51 *L 0.00157 *D AO22JIX0
*I *713:C I *C 112.77 107.73 *L 0.00157 *D AO22JIX0
*I *712:C I *C 110.67 103.11 *L 0.00157 *D AO22JIX0
*I *711:C I *C 90.51 103.11 *L 0.00157 *D AO22JIX0
*I *710:C I *C 101.01 110.67 *L 0.00157 *D AO22JIX0
*I *709:C I *C 95.55 110.67 *L 0.00157 *D AO22JIX0
*I *708:C I *C 87.15 103.11 *L 0.00157 *D AO22JIX0
*I *707:C I *C 84.21 103.11 *L 0.00157 *D AO22JIX0
*I *706:C I *C 81.27 110.67 *L 0.00157 *D AO22JIX0
*I *705:C I *C 65.31 110.67 *L 0.00157 *D AO22JIX0
*I *704:C I *C 72.87 110.67 *L 0.00157 *D AO22JIX0
*I *703:C I *C 68.67 110.67 *L 0.00157 *D AO22JIX0
*I *702:C I *C 65.73 100.17 *L 0.00157 *D AO22JIX0
*I *701:C I *C 60.27 110.67 *L 0.00157 *D AO22JIX0
*I *700:C I *C 56.91 103.11 *L 0.00157 *D AO22JIX0
*I *699:C I *C 52.71 100.17 *L 0.00157 *D AO22JIX0
*I *698:C I *C 49.77 100.17 *L 0.00157 *D AO22JIX0
*I *697:C I *C 40.11 110.67 *L 0.00157 *D AO22JIX0
*I *696:C I *C 30.03 110.67 *L 0.00157 *D AO22JIX0
*I *693:C I *C 49.77 110.67 *L 0.00157 *D AO22JIX0
*I *692:C I *C 35.07 110.67 *L 0.00157 *D AO22JIX0
*I *691:C I *C 24.15 100.17 *L 0.00157 *D AO22JIX0
*I *690:C I *C 34.23 80.43 *L 0.00157 *D AO22JIX0
*I *689:C I *C 40.53 95.55 *L 0.00157 *D AO22JIX0
*I *688:C I *C 24.15 95.55 *L 0.00157 *D AO22JIX0
*I *687:C I *C 26.25 110.67 *L 0.00157 *D AO22JIX0
*I *551:Q O *C 38.85 55.23 *L 0 *D INVJIX1

*CAP
1 *736:C 5.28417e-05
2 *735:C 5.28417e-05
3 *734:C 5.28417e-05
4 *733:C 5.28417e-05
5 *732:C 5.28417e-05
6 *731:C 5.28417e-05
7 *730:C 5.28417e-05
8 *729:C 5.28417e-05
9 *728:C 5.28417e-05
10 *727:C 5.28417e-05
11 *726:C 5.28417e-05
12 *725:C 5.28417e-05
13 *724:C 5.28417e-05
14 *723:C 5.28417e-05
15 *722:C 5.28417e-05
16 *721:C 5.28417e-05
17 *720:C 5.74031e-05
18 *719:C 5.28417e-05
19 *718:C 5.28417e-05
20 *717:C 5.28417e-05
21 *716:C 5.28417e-05
22 *715:C 5.28417e-05
23 *714:C 5.74031e-05
24 *713:C 5.28417e-05
25 *712:C 5.74031e-05
26 *711:C 5.28417e-05
27 *710:C 5.28417e-05
28 *709:C 5.28417e-05
29 *708:C 5.28417e-05
30 *707:C 5.28417e-05
31 *706:C 5.28417e-05
32 *705:C 5.28417e-05
33 *704:C 5.28417e-05
34 *703:C 5.28417e-05
35 *702:C 5.28417e-05
36 *701:C 5.28417e-05
37 *700:C 5.28417e-05
38 *699:C 5.28417e-05
39 *698:C 5.28417e-05
40 *697:C 5.28417e-05
41 *696:C 5.28417e-05
42 *693:C 5.28417e-05
43 *692:C 5.28417e-05
44 *691:C 5.28417e-05
45 *690:C 5.28417e-05
46 *689:C 5.28417e-05
47 *688:C 5.28417e-05
48 *687:C 5.28417e-05
49 *551:Q 5.28417e-05
50 *10:69 0.000410458
51 *10:70 0.000410458
52 *10:71 0.000368047
53 *10:72 0.000460482
54 *10:73 0.000360752
55 *10:74 0.000265567
56 *10:75 0.000275864
57 *10:76 0.000228288
58 *10:77 0.000268602
59 *10:78 9.99481e-05
60 *10:79 0.000276367
61 *10:80 0.000426708
62 *10:81 0.000179605
63 *10:82 7.90362e-05
64 *10:83 0.000153343
65 *10:84 6.03378e-05
66 *10:85 0.000552649
67 *10:86 0.0004064
68 *10:87 0.000102044
69 *10:88 0.000102044
70 *10:89 0.000669803
71 *10:90 0.000822727
72 *10:91 0.000581443
73 *10:92 0.000257165
74 *10:93 0.000428184
75 *10:94 0.000229378
76 *10:95 0.000221278
77 *10:96 0.000213178
78 *10:97 0.000301857
79 *10:98 0.000222217
80 *10:99 0.000361708
81 *10:100 0.000163908
82 *10:101 0.000167346
83 *10:102 0.000686271
84 *10:103 0.000540307
85 *10:104 0.000369053
86 *10:105 4.57145e-05
87 *10:106 0.000287451
88 *10:107 8.76223e-05
89 *10:108 0.000208482
90 *10:109 0.000490131
91 *10:110 0.000545858
92 *10:111 0.000754072
93 *10:112 0.000194178
94 *10:113 0.000105432
95 *10:114 6.37756e-05
96 *10:115 6.37756e-05
97 *10:116 0.000354246
98 *10:117 0.000155154
99 *10:118 0.00045084
100 *10:119 0.000654878
101 *10:120 0.000519361
102 *10:121 0.000283947
103 *10:122 0.000223676
104 *10:123 4.5899e-05
105 *10:124 8.38155e-05
106 *10:125 0.000410106
107 *10:126 0.000410106
108 *10:127 0.000110412
109 *10:128 0.000454663
110 *10:129 0.000124784
111 *10:130 0.000350288
112 *10:131 0.000131978
113 *10:132 8.18032e-05
114 *10:133 0.000111855
115 *10:134 0.000351244
116 *10:135 0.000351244
117 *10:136 0.000103604
118 *10:137 6.0254e-05
119 *10:138 0.000148497
120 *10:139 0.000587883
121 *10:140 0.000156026
122 *10:141 0.000158156
123 *10:142 0.000150627
124 *10:143 0.000514045
125 *10:144 0.000631853
126 *10:145 0.000594607
127 *10:146 0.000643223
128 *10:147 0.000459745
129 *10:148 0.000133974
130 *10:149 0.000304372
131 *10:150 0.000283947
132 *10:151 0.000304372
133 *10:152 5.05275e-05
134 *10:153 5.05275e-05
135 *10:154 0.000240362
136 *10:155 0.000118076
137 *10:156 0.000110882
138 *10:157 0.000411884
139 *10:158 0.000260385
140 *10:159 0.000454663
141 *10:160 0.000113917
142 *10:161 0.000336906
143 *10:162 0.000147524
144 *10:163 5.49882e-05
145 *10:164 4.57145e-05
146 *10:165 0.000514045
147 *10:166 4.57145e-05
148 *10:167 0.000733797
149 *10:168 0.000260385
150 *10:169 0.000109222
151 *10:170 0.000200064
152 *10:171 0.000200064
153 *10:172 0.000652681
154 *10:173 0.000459745
155 *10:174 0.000279855
156 *10:175 6.66433e-05
157 *10:176 7.41729e-05
158 *10:177 0.000421828
159 *10:178 0.000212876
160 *10:179 0.00042914
161 *10:180 0.000682582
162 *10:181 0.000675052
163 *10:182 0.000895374
164 *10:183 0.000232514
165 *10:184 0.000624508
166 *10:185 0.000655096
167 *10:186 0.000101692
168 *10:187 0.00025579
169 *10:188 4.57145e-05
170 *10:189 0.000471148
171 *10:190 0.000210495
172 *10:191 0.000210495
173 *10:192 0.000329963
174 *10:193 0.000222334
175 *10:194 0.000241938
176 *10:195 0.000222334
177 *10:196 0.000264913
178 *10:197 0.000659775
179 *10:198 0.00015549
180 *10:199 0.000416579
181 *10:200 0.000212876
182 *10:201 0.00011546
183 *10:202 0.000464105
184 *10:203 0.000360367
185 *10:204 0.000367896
186 *10:205 0.000129513
187 *10:206 0.000464105
188 *10:207 0.000428066
189 *10:208 0.000360568
190 *10:209 0.001
191 *10:210 0.000161024
192 *10:211 0.000586122
193 *10:212 0.000214117
194 *10:213 0.000169174
195 *10:214 0.000347823
196 *10:215 0.000115108
197 *10:216 0.000539737
198 *10:217 4.57145e-05
199 *10:218 0.000360568
200 *10:219 0.00010954
201 *10:220 0.000347823
202 *10:221 0.000115527
203 *10:222 0.000115527
204 *10:223 0.000565478
205 *10:224 0.000118646
206 *10:225 0.000539737
207 *10:226 4.57145e-05
208 *10:227 0.000465748
209 *10:228 0.000130402
210 *10:229 0.000486442
211 *10:230 4.57145e-05
212 *10:231 0.000606112
213 *10:232 0.000346632
214 *10:233 0.000346632
215 *10:234 0.000122235
216 *10:235 4.57145e-05
217 *10:236 0.000533045
218 *10:237 4.57145e-05
219 *10:238 0.000837938
220 *10:239 4.57145e-05
221 *10:240 0.000725295
222 *10:241 0.000340696
223 *10:242 0.000333468
224 *10:243 0.000935488
225 *10:244 5.43342e-05
226 *10:245 0.000232061
227 *10:246 0.000338801
228 *10:247 0.000199142
229 *10:248 7.00978e-05
230 *10:249 7.00978e-05
231 *10:250 0.000714344
232 *10:251 7.00978e-05
233 *10:252 7.00978e-05
234 *10:253 0.000389747
235 *10:254 4.57145e-05
236 *10:255 0.00109901
237 *10:256 4.57145e-05
238 *10:257 0.000737168
239 *10:258 4.57145e-05
240 *10:259 0.000737235
241 *10:260 0.000193104
242 *10:261 0.000166004
243 *10:262 0.000320253
244 *10:263 0.000561152
245 *10:264 0.000255102
246 *10:265 0.000347353

*RES
1 *10:123 *718:C 9
2 *714:C *10:94 0.577469
3 *10:123 *10:124 0.184845
4 *720:C *10:95 0.577469
5 *10:175 *716:C 9
6 *10:94 *10:108 1.73254
7 *10:107 *10:124 0.369553
8 *10:95 *10:112 1.73254
9 *10:175 *10:176 0.184845
10 *10:109 *10:108 9
11 *10:107 *10:109 0.184845
12 *10:113 *10:112 9
13 *10:176 *10:180 0.184845
14 *10:109 *10:110 2.77199
15 *10:110 *10:113 0.554398
16 *10:203 *717:C 9
17 *10:181 *723:C 9
18 *10:180 *10:181 2.95683
19 *10:68 *10:181 0.256805
20 *10:111 *10:110 9
21 *10:203 *10:204 1.84804
22 *10:182 *10:181 9
23 *10:111 *10:182 4.98958
24 *10:196 *10:204 0.184845
25 *10:182 *10:198 1.1088
26 *10:196 *10:197 1.29364
27 *10:197 *10:198 9
28 *10:197 *10:199 2.21759
29 *10:200 *10:199 9
30 *10:178 *10:200 1.29364
31 *10:177 *10:178 9
32 *10:177 *10:179 1.84804
33 *10:179 *10:183 0.184845
34 *10:184 *721:C 9
35 *10:183 *10:184 1.29364
36 *10:187 *551:Q 9
37 *10:184 *10:185 1.84804
38 *10:185 *10:187 1.1088
39 *10:186 *10:185 9
40 *10:169 *10:186 0.554398
41 *10:168 *10:169 0.184845
42 *10:158 *10:168 1.47835
43 *10:164 *728:C 9
44 *10:65 *10:164 0.0439453
45 *10:158 *10:159 0.184845
46 *10:165 *10:164 9
47 *10:114 *719:C 9
48 *10:67 *10:114 0.0811615
49 *10:128 *10:159 2.21759
50 *10:143 *10:165 2.21759
51 *10:114 *10:115 0.184845
52 *10:127 *10:128 0.184845
53 *10:142 *10:143 9
54 *10:71 *722:C 9
55 *10:116 *10:115 9
56 *10:116 *10:127 0.739243
57 *10:141 *10:142 0.554398
58 *10:72 *724:C 9
59 *10:71 *10:72 1.29364
60 *10:74 *10:116 1.47835
61 *10:135 *10:141 0.184845
62 *10:72 *10:73 0.369553
63 *10:73 *10:74 9
64 *10:134 *10:135 1.84804
65 *10:152 *726:C 9
66 *10:66 *10:152 0.0811615
67 *10:73 *10:75 1.29364
68 *10:134 *10:140 0.184845
69 *10:152 *10:153 0.184845
70 *10:75 *10:87 0.184845
71 *10:138 *10:140 0.554398
72 *10:154 *10:153 9
73 *10:87 *10:88 0.554398
74 *10:139 *10:138 9
75 *10:139 *10:154 1.29364
76 *10:88 *10:96 0.184845
77 *10:190 *733:C 9
78 *10:99 *10:139 2.21759
79 *10:97 *725:C 9
80 *10:96 *10:97 1.1088
81 *10:170 *730:C 9
82 *10:190 *10:191 0.739243
83 *10:98 *10:99 9
84 *10:97 *10:98 0.369553
85 *10:170 *10:171 0.739243
86 *10:192 *10:191 9
87 *10:98 *10:100 0.739243
88 *10:172 *10:171 9
89 *10:172 *10:192 1.29364
90 *10:76 *10:100 0.369553
91 *10:161 *10:172 1.47835
92 *10:77 *727:C 9
93 *10:76 *10:77 0.739243
94 *10:151 *734:C 9
95 *10:160 *10:161 9
96 *10:77 *10:78 0.554398
97 *10:149 *10:151 0.92395
98 *10:162 *690:C 9
99 *10:160 *10:162 0.739243
100 *10:69 *10:78 0.184845
101 *10:150 *10:149 9
102 *10:162 *10:163 0.184845
103 *10:69 *10:70 1.66319
104 *10:121 *10:150 1.66319
105 *10:122 *736:C 9
106 *10:155 *10:163 0.184845
107 *10:70 *10:79 0.184845
108 *10:117 *731:C 9
109 *10:120 *10:121 9
110 *10:120 *10:122 0.92395
111 *10:155 *10:156 0.369553
112 *10:80 *729:C 9
113 *10:79 *10:80 1.1088
114 *10:117 *10:118 0.554398
115 *10:118 *10:120 1.66319
116 *10:157 *10:156 9
117 *10:80 *10:81 0.92395
118 *10:195 *689:C 9
119 *10:119 *10:118 9
120 *10:119 *10:157 2.58714
121 *10:81 *10:89 0.184845
122 *10:193 *10:195 0.92395
123 *10:92 *10:119 1.47835
124 *10:90 *732:C 9
125 *10:89 *10:90 4.06563
126 *10:194 *10:193 9
127 *10:86 *691:C 9
128 *10:91 *10:92 9
129 *10:90 *10:91 0.554398
130 *10:174 *10:194 1.29364
131 *10:85 *688:C 9
132 *10:85 *10:86 1.66319
133 *10:91 *10:93 2.03275
134 *10:173 *10:174 0.369553
135 *10:83 *10:85 0.739243
136 *10:93 *10:101 0.184845
137 *10:147 *10:173 2.95683
138 *10:84 *10:83 9
139 *10:102 *735:C 9
140 *10:101 *10:102 0.739243
141 *10:147 *10:148 0.369553
142 *10:82 *10:84 0.184845
143 *10:102 *10:103 2.40244
144 *10:136 *10:148 0.554398
145 *10:82 *10:104 0.369553
146 *10:104 *10:103 9
147 *10:136 *10:137 0.184845
148 *10:104 *10:130 1.84804
149 *10:130 *10:137 0.184845
150 *10:129 *10:130 9
151 *10:129 *10:131 0.554398
152 *10:232 *702:C 9
153 *10:125 *10:131 0.184845
154 *10:232 *10:233 1.66319
155 *10:125 *10:126 2.58714
156 *10:234 *10:233 9
157 *10:126 *10:132 0.184845
158 *10:221 *700:C 9
159 *10:228 *10:234 0.554398
160 *10:132 *10:133 0.369553
161 *10:221 *10:222 0.369553
162 *10:228 *10:229 0.184845
163 *10:105 *687:C 9
164 *10:60 *10:105 0.256805
165 *10:133 *10:144 0.369553
166 *10:223 *10:222 9
167 *10:223 *10:229 3.32639
168 *10:106 *10:105 9
169 *10:145 *696:C 9
170 *10:59 *10:145 0.256805
171 *10:144 *10:145 3.88078
172 *10:219 *10:223 0.554398
173 *10:166 *692:C 9
174 *10:58 *10:166 0.256805
175 *10:106 *10:146 1.66319
176 *10:146 *10:145 9
177 *10:217 *699:C 9
178 *10:64 *10:217 0.256805
179 *10:219 *10:220 0.184845
180 *10:188 *697:C 9
181 *10:57 *10:188 0.256805
182 *10:167 *10:166 9
183 *10:146 *10:167 2.21759
184 *10:218 *10:217 9
185 *10:214 *10:220 2.03275
186 *10:189 *10:188 9
187 *10:167 *10:189 2.21759
188 *10:208 *10:218 1.29364
189 *10:213 *10:214 0.184845
190 *10:189 *10:201 0.554398
191 *10:207 *698:C 9
192 *10:207 *10:208 9
193 *10:63 *10:207 0.0439453
194 *10:210 *10:213 0.554398
195 *10:201 *10:202 0.184845
196 *10:207 *10:209 1.84804
197 *10:209 *10:210 9
198 *10:202 *10:206 3.14154
199 *10:211 *693:C 9
200 *10:209 *10:211 2.77199
201 *10:205 *10:206 0.184845
202 *10:212 *10:211 9
203 *10:205 *10:212 0.554398
204 *10:251 *711:C 9
205 *10:61 *10:251 0.0811615
206 *10:212 *10:215 0.554398
207 *10:248 *708:C 9
208 *10:62 *10:248 0.0811615
209 *10:251 *10:252 0.184845
210 *10:215 *10:216 0.184845
211 *10:248 *10:249 0.184845
212 *10:253 *10:252 9
213 *10:216 *10:225 3.51123
214 *10:250 *10:249 9
215 *10:250 *10:253 1.47835
216 *10:226 *701:C 9
217 *10:56 *10:226 0.256805
218 *10:224 *10:225 0.184845
219 *10:244 *707:C 9
220 *10:246 *10:250 1.29364
221 *10:230 *705:C 9
222 *10:55 *10:230 0.256805
223 *10:227 *10:226 9
224 *10:224 *10:227 0.554398
225 *10:244 *10:245 0.184845
226 *10:245 *10:246 9
227 *10:235 *703:C 9
228 *10:54 *10:235 0.256805
229 *10:231 *10:230 9
230 *10:227 *10:231 2.21759
231 *10:245 *10:247 1.1088
232 *10:237 *704:C 9
233 *10:53 *10:237 0.256805
234 *10:236 *10:235 9
235 *10:231 *10:236 1.47835
236 *712:C *10:260 0.577469
237 *10:241 *10:247 0.184845
238 *10:239 *706:C 9
239 *10:52 *10:239 0.256805
240 *10:238 *10:237 9
241 *10:236 *10:238 1.84804
242 *10:260 *10:261 1.44374
243 *10:241 *10:242 1.84804
244 *10:240 *10:239 9
245 *10:238 *10:240 3.69594
246 *10:262 *10:261 9
247 *10:254 *709:C 9
248 *10:51 *10:254 0.256805
249 *10:243 *10:242 9
250 *10:240 *10:243 1.1088
251 *10:263 *713:C 9
252 *10:262 *10:263 1.29364
253 *10:256 *710:C 9
254 *10:50 *10:256 0.256805
255 *10:255 *10:254 9
256 *10:243 *10:255 5.17442
257 *10:263 *10:264 1.47835
258 *10:257 *10:256 9
259 *10:255 *10:257 2.40244
260 *10:265 *10:264 9
261 *10:257 *10:259 2.77199
262 *10:259 *10:265 2.40244
263 *10:258 *715:C 9
264 *10:258 *10:259 9
265 *10:49 *10:258 0.256805
*END

*D_NET *59 0.00675577

*CONN
*P *59 I *C 0 37.17 *L 0
*I *721:B I *C 38.01 47.25 *L 0.00164 *D AO22JIX0

*CAP
1 *59 9.22045e-05
2 *721:B 5.2842e-05
3 *59:2 0.000115069
4 *59:3 0.00195118
5 *59:4 0.00195871
6 *59:5 0.000270785
7 *59:6 0.00102585
8 *59:7 0.000263283
9 *59:8 0.00102585

*RES
1 *59:8 *721:B 8.99998
2 *59:6 *59:8 3.51125
3 *59:7 *59:6 8.99998
4 *59:5 *59:7 1.66325
5 *59:4 *59:5 0.184755
6 *59:3 *59:4 14.7840004
7 *59:2 *59:3 8.99998
8 *59 *59:2 0.739245
*END

*D_NET *60 0.00512693

*CONN
*P *60 I *C 0 32.13 *L 0
*I *723:B I *C 38.01 35.07 *L 0.00164 *D AO22JIX0

*CAP
1 *60 0.000138314
2 *723:B 5.28524e-05
3 *60:2 0.000168702
4 *60:3 6.03406e-05
5 *60:4 0.0015003
6 *60:5 0.000634458
7 *60:6 0.00150073
8 *60:7 0.000634458
9 *60:8 0.000114819
10 *60:9 0.000107331
11 *60:10 0.000107308
12 *60:11 0.000107331

*RES
1 *60:11 *723:B 9.00004
2 *60:9 *60:11 0.369648
3 *60:10 *60:9 9.00004
4 *60:8 *60:10 0.554386
5 *60:7 *60:8 0.184738
6 *60:5 *60:7 4.43526
7 *60:5 *60:6 0.184738
8 *60:4 *60:6 11.2728004
9 *60:3 *60:4 9.00004
10 *60:2 *60:3 0.184738
11 *60 *60:2 0.924034
*END

*D_NET *61 0.00408057

*CONN
*P *61 I *C 0 27.09 *L 0
*I *720:B I *C 24.15 35.07 *L 0.00164 *D AO22JIX0

*CAP
1 *61 0.000255853
2 *720:B 2.57787e-05
3 *61:2 0.000316617
4 *61:3 0.000339755
5 *61:4 5.57981e-05
6 *61:5 0.000301849
7 *61:6 0.00121891
8 *61:7 5.41986e-05
9 *61:8 0.00121891
10 *61:9 9.05046e-05
11 *61:10 8.3195e-05
12 *61:11 0.000119203

*RES
1 *61:10 *720:B 0.288671
2 *61:10 *61:11 0.577548
3 *61:9 *61:11 1.1551
4 *61:8 *61:9 0.288671
5 *61:6 *61:8 13.57125
6 *61:6 *61:7 0.288671
7 *61:4 *61:7 0.577548
8 *61:5 *61:4 8.99994
9 *61:3 *61:5 2.03271
10 *61:2 *61:3 0.369639
11 *61 *61:2 2.03271
*END

*D_NET *62 0.00408921

*CONN
*P *62 I *C 0 22.05 *L 0
*I *718:B I *C 27.51 27.51 *L 0.00164 *D AO22JIX0

*CAP
1 *62 0.00015677
2 *718:B 5.28597e-05
3 *62:2 0.000179618
4 *62:3 0.00142378
5 *62:4 0.00155973
6 *62:5 0.000245735
7 *62:6 0.000180475
8 *62:7 0.000109789
9 *62:8 0.000180475

*RES
1 *62:8 *718:B 8.99995
2 *62:6 *62:8 0.923977
3 *62:7 *62:6 8.99995
4 *62:5 *62:7 0.554417
5 *62:4 *62:5 1.29354
6 *62:3 *62:4 9.97920036
7 *62:2 *62:3 8.99995
8 *62 *62:2 1.47839
*END

*D_NET *63 0.00627234

*CONN
*P *63 I *C 0 17.01 *L 0
*I *717:B I *C 40.95 27.51 *L 0.00164 *D AO22JIX0

*CAP
1 *63 0.000279818
2 *717:B 5.28325e-05
3 *63:2 0.000295585
4 *63:3 0.00244864
5 *63:4 0.000376964
6 *63:5 0.00244154
7 *63:6 0.000376964

*RES
1 *63:6 *717:B 9.00007
2 *63:4 *63:6 2.58711
3 *63:5 *63:4 9.00007
4 *63:3 *63:5 17.7408009
5 *63:2 *63:3 9.00007
6 *63 *63:2 2.03271
*END

*D_NET *64 0.00665337

*CONN
*P *64 I *C 0 11.97 *L 0
*I *716:B I *C 37.59 27.51 *L 0.00164 *D AO22JIX0

*CAP
1 *64 0.000124709
2 *716:B 5.28656e-05
3 *64:2 0.00233775
4 *64:3 0.000147574
5 *64:4 0.00233775
6 *64:5 0.000826372
7 *64:6 0.000826372

*RES
1 *64:6 *716:B 8.99989
2 *64:5 *64:6 5.91359
3 *64:4 *64:5 8.99989
4 *64:2 *64:4 25.4099998
5 *64:3 *64:2 8.99989
6 *64 *64:3 0.923951
*END

*D_NET *65 0.00591885

*CONN
*P *65 I *C 0 6.93 *L 0
*I *714:B I *C 24.15 27.51 *L 0.00164 *D AO22JIX0

*CAP
1 *65 0.000253528
2 *714:B 2.57815e-05
3 *65:2 0.000375067
4 *65:3 0.000252191
5 *65:4 0.000221807
6 *65:5 0.000113372
7 *65:6 5.5795e-05
8 *65:7 0.000105855
9 *65:8 0.000240182
10 *65:9 0.000240182
11 *65:10 0.000657958
12 *65:11 0.000597189
13 *65:12 0.00121641
14 *65:13 5.41988e-05
15 *65:14 0.00121641
16 *65:15 9.05045e-05
17 *65:16 8.31914e-05
18 *65:17 0.000119219

*RES
1 *65:16 *714:B 0.288671
2 *65:16 *65:17 0.577548
3 *65:15 *65:17 1.1551
4 *65:14 *65:15 0.288671
5 *65:12 *65:14 13.57125
6 *65:12 *65:13 0.288671
7 *65:6 *65:13 0.577548
8 *65:7 *65:6 8.99994
9 *65:5 *65:7 0.554355
10 *65:5 *65:9 0.184716
11 *65:8 *65:9 1.66327
12 *65:4 *65:8 0.184716
13 *65:3 *65:4 1.29363
14 *65:3 *65:11 0.369639
15 *65:10 *65:11 4.06562
16 *65:2 *65:10 0.739279
17 *65 *65:2 2.03271
*END

*D_NET *66 0.00940555

*CONN
*P *66 I *C 0 1.89 *L 0
*I *719:B I *C 26.67 50.19 *L 0.00164 *D AO22JIX0

*CAP
1 *66 4.56971e-05
2 *719:B 5.28627e-05
3 *66:2 0.00143424
4 *66:3 0.00143424
5 *66:4 0.000114007
6 *66:5 0.000320094
7 *66:6 0.000320094
8 *66:7 0.00281198
9 *66:8 0.0027816
10 *66:9 9.07076e-05

*RES
1 *66:9 *719:B 8.99999
2 *66:6 *66:9 0.36951
3 *66:5 *66:6 1.84814
4 *66:5 *66:8 0.36951
5 *66:7 *66:8 19.4039993
6 *66:4 *66:7 0.554265
7 *66:3 *66:4 8.99999
8 *66:2 *66:3 17.0362
9 *66:2 *66 8.99999
*END

*D_NET *67 0.00497373

*CONN
*P *67 I *C 0 77.49 *L 0
*I *730:B I *C 36.75 77.49 *L 0.00164 *D AO22JIX0

*CAP
1 *67 4.60894e-05
2 *730:B 5.28614e-05
3 *67:2 6.89521e-05
4 *67:3 0.00182639
5 *67:4 0.000340255
6 *67:5 0.00183392
7 *67:6 0.000340255
8 *67:7 0.000120414
9 *67:8 0.000115853
10 *67:9 0.000115853
11 *67:10 0.000112887

*RES
1 *67:8 *730:B 8.99993
2 *67:8 *67:9 0.369583
3 *67:10 *67:9 8.99993
4 *67:7 *67:10 0.554375
5 *67:6 *67:7 0.184792
6 *67:4 *67:6 2.2177
7 *67:4 *67:5 0.184792
8 *67:3 *67:5 13.1208
9 *67:2 *67:3 8.99993
10 *67 *67:2 0.369583
*END

*D_NET *68 0.00342931

*CONN
*P *68 I *C 0 72.45 *L 0
*I *729:B I *C 23.31 69.93 *L 0.00164 *D AO22JIX0

*CAP
1 *68 0.000207436
2 *729:B 2.57753e-05
3 *68:2 0.000101596
4 *68:3 0.000230309
5 *68:4 9.99814e-05
6 *68:5 0.00118873
7 *68:6 0.000137438
8 *68:7 0.00118873
9 *68:8 0.000166134
10 *68:9 8.31848e-05

*RES
1 *68:9 *729:B 0.288812
2 *68:8 *68:9 0.577421
3 *68:6 *68:8 1.15504
4 *68:6 *68:7 0.288812
5 *68:5 *68:7 13.2825003
6 *68:4 *68:5 0.288812
7 *68:3 *68 1.66315
8 *68:2 *68:4 0.866232
9 *68:2 *68:3 8.99998
*END

*D_NET *69 0.00458431

*CONN
*P *69 I *C 0 67.41 *L 0
*I *728:B I *C 34.23 65.31 *L 0.00164 *D AO22JIX0

*CAP
1 *69 2.30392e-05
2 *728:B 5.28523e-05
3 *69:2 5.34233e-05
4 *69:3 6.03351e-05
5 *69:4 0.00129006
6 *69:5 0.00129049
7 *69:6 0.000675048
8 *69:7 0.000101983
9 *69:8 0.000675048
10 *69:9 0.000133785
11 *69:10 0.000133785
12 *69:11 9.44607e-05

*RES
1 *69:9 *728:B 9.00007
2 *69:9 *69:10 0.739183
3 *69:11 *69:10 9.00007
4 *69:7 *69:11 0.554462
5 *69:7 *69:8 0.18487
6 *69:6 *69:8 4.25038
7 *69:5 *69:6 0.18487
8 *69:4 *69:5 9.79440022
9 *69:3 *69:4 9.00007
10 *69:2 *69:3 0.18487
11 *69:2 *69 0.18487
*END

*D_NET *70 0.00308051

*CONN
*P *70 I *C 0 62.37 *L 0
*I *727:B I *C 23.31 62.37 *L 0.00164 *D AO22JIX0

*CAP
1 *70 6.91453e-05
2 *727:B 2.57753e-05
3 *70:2 0.000101596
4 *70:3 9.20003e-05
5 *70:4 9.99814e-05
6 *70:5 0.00118873
7 *70:6 0.000101324
8 *70:7 0.00118873
9 *70:8 0.000130037
10 *70:9 8.31848e-05

*RES
1 *70:9 *727:B 0.288812
2 *70:8 *70:9 0.577421
3 *70:6 *70:8 1.15504
4 *70:6 *70:7 0.288812
5 *70:5 *70:7 13.2825003
6 *70:4 *70:5 0.288812
7 *70:3 *70 0.554316
8 *70:2 *70:4 0.866232
9 *70:2 *70:3 8.99998
*END

*D_NET *71 0.00424731

*CONN
*P *71 I *C 0 57.33 *L 0
*I *726:B I *C 32.13 57.75 *L 0.00164 *D AO22JIX0

*CAP
1 *71 2.49292e-05
2 *726:B 5.28578e-05
3 *71:2 4.7792e-05
4 *71:3 0.00144856
5 *71:4 0.000385758
6 *71:5 0.00145609
7 *71:6 0.000385758
8 *71:7 0.00011567
9 *71:8 0.000110893
10 *71:9 0.000108137
11 *71:10 0.000110893

*RES
1 *71:10 *726:B 8.99993
2 *71:8 *71:10 0.369673
3 *71:9 *71:8 8.99993
4 *71:7 *71:9 0.554344
5 *71:6 *71:7 0.184837
6 *71:4 *71:6 2.58721
7 *71:4 *71:5 0.184837
8 *71:3 *71:5 10.9032001
9 *71:2 *71:3 8.99993
10 *71:2 *71 0.184837
*END

*D_NET *72 0.00374117

*CONN
*P *72 I *C 0 52.29 *L 0
*I *725:B I *C 24.15 57.75 *L 0.00164 *D AO22JIX0

*CAP
1 *72 0.000253528
2 *725:B 2.57787e-05
3 *72:2 0.000314292
4 *72:3 0.000177903
5 *72:4 5.57981e-05
6 *72:5 0.000139997
7 *72:6 0.00121891
8 *72:7 5.41986e-05
9 *72:8 0.00121891
10 *72:9 8.49805e-05
11 *72:10 8.3195e-05
12 *72:11 0.000113679

*RES
1 *72:10 *725:B 0.288671
2 *72:10 *72:11 0.577548
3 *72:9 *72:11 1.1551
4 *72:8 *72:9 0.288671
5 *72:6 *72:8 13.57125
6 *72:6 *72:7 0.288671
7 *72:4 *72:7 0.577548
8 *72:5 *72:4 8.99994
9 *72:3 *72:5 0.923995
10 *72:2 *72:3 0.369639
11 *72 *72:2 2.03271
*END

*D_NET *73 0.00340927

*CONN
*P *73 I *C 0 47.25 *L 0
*I *724:B I *C 23.31 50.19 *L 0.00164 *D AO22JIX0

*CAP
1 *73 0.000230474
2 *724:B 2.5782e-05
3 *73:2 0.000101582
4 *73:3 0.000253343
5 *73:4 0.00117826
6 *73:5 9.99817e-05
7 *73:6 0.00117826
8 *73:7 0.000114832
9 *73:8 8.31893e-05
10 *73:9 0.000143545

*RES
1 *73:8 *724:B 0.288812
2 *73:8 *73:9 0.577421
3 *73:7 *73:9 1.15504
4 *73:6 *73:7 0.288812
5 *73:4 *73:6 13.2825003
6 *73:4 *73:5 0.288812
7 *73:2 *73:5 0.866232
8 *73:3 *73:2 8.99998
9 *73 *73:3 1.84799
*END

*D_NET *74 0.00344407

*CONN
*P *74 I *C 0 42.21 *L 0
*I *722:B I *C 23.31 47.25 *L 0.00164 *D AO22JIX0

*CAP
1 *74 0.000207436
2 *722:B 2.57753e-05
3 *74:2 0.000101596
4 *74:3 0.000230309
5 *74:4 9.99814e-05
6 *74:5 0.00118873
7 *74:6 0.000144802
8 *74:7 0.00118873
9 *74:8 0.000173516
10 *74:9 8.31848e-05

*RES
1 *74:9 *722:B 0.288812
2 *74:8 *74:9 0.577421
3 *74:6 *74:8 1.15504
4 *74:6 *74:7 0.288812
5 *74:5 *74:7 13.2825003
6 *74:4 *74:5 0.288812
7 *74:2 *74:4 0.866232
8 *74:3 *74:2 8.99998
9 *74 *74:3 1.66315
*END

*D_NET *75 0.00564161

*CONN
*P *75 I *C 0 117.81 *L 0
*I *688:B I *C 23.31 95.55 *L 0.00164 *D AO22JIX0

*CAP
1 *75 0.000247525
2 *688:B 2.57816e-05
3 *75:2 0.000367726
4 *75:3 7.03653e-05
5 *75:4 0.00106951
6 *75:5 0.00116685
7 *75:6 0.00114174
8 *75:7 6.87629e-05
9 *75:8 0.00114174
10 *75:9 0.000114842
11 *75:10 8.31849e-05
12 *75:11 0.000143544

*RES
1 *75:10 *688:B 0.288662
2 *75:10 *75:11 0.577518
3 *75:9 *75:11 1.15504
4 *75:8 *75:9 0.288662
5 *75:6 *75:8 12.7049999
6 *75:6 *75:7 0.288662
7 *75:3 *75:7 0.577518
8 *75:4 *75:3 9.00009
9 *75:4 *75:5 7.20724
10 *75:2 *75:5 0.739199
11 *75:2 *75 2.03285
*END

*D_NET *76 0.00830582

*CONN
*P *76 I *C 0 112.77 *L 0
*I *690:B I *C 33.39 80.43 *L 0.00164 *D AO22JIX0

*CAP
1 *76 0.000274365
2 *690:B 5.28551e-05
3 *76:2 0.000290125
4 *76:3 0.00122225
5 *76:4 0.000318268
6 *76:5 0.000318268
7 *76:6 0.000272071
8 *76:7 0.000272071
9 *76:8 0.000307805
10 *76:9 0.000777533
11 *76:10 0.000315004
12 *76:11 0.00023201
13 *76:12 0.00023201
14 *76:13 0.000514749
15 *76:14 0.000507569
16 *76:15 0.00121516
17 *76:16 0.000203084
18 *76:17 0.000203084
19 *76:18 0.000777533

*RES
1 *76:16 *690:B 9
2 *76:16 *76:17 1.47835
3 *76:18 *76:17 9
4 *76:9 *76:18 5.54398
5 *76:8 *76:9 9
6 *76:8 *76:10 1.84804
7 *76:4 *76:10 0.184845
8 *76:4 *76:5 2.03275
9 *76:5 *76:11 0.184845
10 *76:11 *76:12 1.29364
11 *76:6 *76:12 0.184845
12 *76:6 *76:7 2.03275
13 *76:7 *76:13 0.184845
14 *76:13 *76:14 3.51123
15 *76:15 *76:14 9
16 *76:3 *76:15 8.87036
17 *76:2 *76:3 9
18 *76:2 *76 2.03275
*END

*D_NET *77 0.00610657

*CONN
*P *77 I *C 0 107.73 *L 0
*I *736:B I *C 27.09 87.99 *L 0.00164 *D AO22JIX0

*CAP
1 *77 0.000249425
2 *736:B 5.28534e-05
3 *77:2 0.000272284
4 *77:3 0.00143992
5 *77:4 0.000127661
6 *77:5 0.00144745
7 *77:6 0.000561112
8 *77:7 0.000553934
9 *77:8 0.000120129
10 *77:9 0.000361183
11 *77:10 0.000361183
12 *77:11 0.000276105
13 *77:12 0.000283306

*RES
1 *77:11 *736:B 9.00008
2 *77:11 *77:12 1.66323
3 *77:9 *77:12 0.184839
4 *77:9 *77:10 1.47839
5 *77:6 *77:10 0.184839
6 *77:6 *77:7 3.51115
7 *77:8 *77:7 9.00008
8 *77:4 *77:8 0.739197
9 *77:4 *77:5 0.184839
10 *77:3 *77:5 10.5335999
11 *77:2 *77:3 9.00008
12 *77:2 *77 1.84807
*END

*D_NET *78 0.00473081

*CONN
*P *78 I *C 0 102.69 *L 0
*I *735:B I *C 24.15 87.99 *L 0.00164 *D AO22JIX0

*CAP
1 *78 0.000274361
2 *735:B 2.5777e-05
3 *78:2 0.000334464
4 *78:3 5.57909e-05
5 *78:4 0.000606444
6 *78:5 0.000643676
7 *78:6 0.00122858
8 *78:7 5.41974e-05
9 *78:8 0.00122858
10 *78:9 8.35176e-05
11 *78:10 8.31989e-05
12 *78:11 0.000112219

*RES
1 *78:10 *735:B 0.288671
2 *78:10 *78:11 0.577548
3 *78:9 *78:11 1.1551
4 *78:8 *78:9 0.288671
5 *78:6 *78:8 13.57125
6 *78:6 *78:7 0.288671
7 *78:3 *78:7 0.577548
8 *78:4 *78:3 8.99994
9 *78:4 *78:5 3.8809
10 *78:2 *78:5 0.369639
11 *78:2 *78 2.03271
*END

*D_NET *79 0.00548475

*CONN
*P *79 I *C 0 97.65 *L 0
*I *734:B I *C 30.87 87.99 *L 0.00164 *D AO22JIX0

*CAP
1 *79 2.7666e-05
2 *734:B 5.28612e-05
3 *79:2 5.05342e-05
4 *79:3 0.00188275
5 *79:4 0.00024388
6 *79:5 0.000236669
7 *79:6 0.00188275
8 *79:7 0.000128188
9 *79:8 0.000135371
10 *79:9 9.05823e-05
11 *79:10 9.05823e-05
12 *79:11 0.000331474
13 *79:12 0.000331474

*RES
1 *79:7 *734:B 8.99993
2 *79:7 *79:8 0.554375
3 *79:8 *79:11 0.184792
4 *79:11 *79:12 2.03271
5 *79:9 *79:12 0.184792
6 *79:9 *79:10 0.369583
7 *79:4 *79:10 0.184792
8 *79:4 *79:5 1.10875
9 *79:6 *79:5 8.99993
10 *79:3 *79:6 13.1208
11 *79:2 *79:3 8.99993
12 *79:2 *79 0.184792
*END

*D_NET *80 0.00705385

*CONN
*P *80 I *C 0 92.61 *L 0
*I *733:B I *C 39.69 77.49 *L 0.00164 *D AO22JIX0

*CAP
1 *80 0.00023284
2 *733:B 5.28568e-05
3 *80:2 0.000262883
4 *80:3 6.00111e-05
5 *80:4 0.00163891
6 *80:5 0.00163936
7 *80:6 0.00034048
8 *80:7 0.000435812
9 *80:8 0.00034048
10 *80:9 0.000810987
11 *80:10 0.000810987
12 *80:11 0.000428282

*RES
1 *80:9 *733:B 9.00002
2 *80:9 *80:10 4.98957
3 *80:11 *80:10 9.00002
4 *80:7 *80:11 2.77208
5 *80:7 *80:8 0.184806
6 *80:6 *80:8 2.03286
7 *80:5 *80:6 0.184806
8 *80:4 *80:5 12.1968002
9 *80:3 *80:4 9.00002
10 *80:2 *80:3 0.184806
11 *80:2 *80 1.66325
*END

*D_NET *81 0.00363195

*CONN
*P *81 I *C 0 87.57 *L 0
*I *732:B I *C 23.73 80.43 *L 0.00164 *D AO22JIX0

*CAP
1 *81 0.000253516
2 *732:B 2.57804e-05
3 *81:2 0.000313616
4 *81:3 5.57939e-05
5 *81:4 0.000101232
6 *81:5 0.000138477
7 *81:6 0.00119064
8 *81:7 5.41952e-05
9 *81:8 0.00119064
10 *81:9 9.8089e-05
11 *81:10 8.31913e-05
12 *81:11 0.000126776

*RES
1 *81:10 *732:B 0.288812
2 *81:10 *81:11 0.577421
3 *81:9 *81:11 1.15504
4 *81:8 *81:9 0.288812
5 *81:6 *81:8 13.2825003
6 *81:6 *81:7 0.288812
7 *81:3 *81:7 0.577421
8 *81:4 *81:3 8.99998
9 *81:4 *81:5 0.554316
10 *81:2 *81:5 0.369679
11 *81:2 *81 2.03283
*END

*D_NET *82 0.00395134

*CONN
*P *82 I *C 0 82.53 *L 0
*I *731:B I *C 27.09 80.43 *L 0.00164 *D AO22JIX0

*CAP
1 *82 8.98954e-05
2 *731:B 5.28567e-05
3 *82:3 0.000112759
4 *82:4 0.00182506
5 *82:5 4.56996e-05
6 *82:6 0.00182506

*RES
1 *82:3 *82 0.923952
2 *82:4 *82:3 9.00005
3 *82:4 *82:6 11.6423998
4 *82:5 *731:B 9.00005
5 *82:5 *82:6 9.00005
6 *82:2 *82:5 0.25688
*END

*D_NET *83 0.00607219

*CONN
*P *83 I *C 40.11 135.24 *L 0
*I *698:B I *C 48.93 100.17 *L 0.00164 *D AO22JIX0

*CAP
1 *83 2.30475e-05
2 *698:B 5.28499e-05
3 *83:2 0.000523231
4 *83:3 4.59038e-05
5 *83:4 0.000304652
6 *83:5 0.000244303
7 *83:6 0.00139188
8 *83:7 0.00139209
9 *83:8 0.000387432
10 *83:9 0.000387432
11 *83:10 0.000113814
12 *83:11 0.000523231
13 *83:12 0.000106273
14 *83:13 0.00025416
15 *83:14 0.000321837

*RES
1 *83:13 *698:B 8.99998
2 *83:13 *83:14 0.923986
3 *83:4 *83:14 0.554392
4 *83:4 *83:5 1.66317
5 *83:5 *83:8 0.184797
6 *83:8 *83:9 2.40236
7 *83:6 *83:9 0.184797
8 *83:6 *83:7 9.42479992
9 *83:7 *83:10 0.184797
10 *83:10 *83:12 0.554392
11 *83:11 *83:12 8.99998
12 *83:3 *83 0.184797
13 *83:2 *83:11 5.48625
14 *83:2 *83:3 8.99998
*END

*D_NET *84 0.00334245

*CONN
*P *84 I *C 35.07 135.24 *L 0
*I *697:B I *C 39.27 110.67 *L 0.00164 *D AO22JIX0

*CAP
1 *84 0.0013155
2 *697:B 2.57725e-05
3 *84:2 0.00027929
4 *84:3 0.00133835
5 *84:4 8.32806e-05
6 *84:5 0.000300263

*RES
1 *84:4 *697:B 0.288705
2 *84:4 *84:5 0.577562
3 *84:3 *84 9.97920036
4 *84:2 *84:5 2.5988
5 *84:2 *84:3 8.99995
*END

*D_NET *85 0.00282469

*CONN
*P *85 I *C 30.03 135.24 *L 0
*I *696:B I *C 29.19 110.67 *L 0.00164 *D AO22JIX0

*CAP
1 *85 6.07599e-05
2 *696:B 5.28529e-05
3 *85:2 0.00133657
4 *85:3 0.00137449

*RES
1 *85:3 *85 0.369679
2 *85:2 *85:3 10.5335999
3 *696:B *85:2 9.00008
*END

*D_NET *86 0.00291227

*CONN
*P *86 I *C 24.99 135.24 *L 0
*I *687:B I *C 25.41 110.67 *L 0.00164 *D AO22JIX0

*CAP
1 *86 0.0006656
2 *687:B 5.28547e-05
3 *86:2 0.000695989
4 *86:3 0.000745146
5 *86:4 0.00075268

*RES
1 *86:3 *687:B 9
2 *86:3 *86:4 5.35927
3 *86:2 *86:4 0.184845
4 *86:2 *86 5.17442
*END

*D_NET *87 0.00688347

*CONN
*P *87 I *C 19.95 135.24 *L 0
*I *693:B I *C 48.93 110.67 *L 0.00164 *D AO22JIX0

*CAP
1 *87 2.30379e-05
2 *693:B 5.28478e-05
3 *87:2 0.000741915
4 *87:3 4.59015e-05
5 *87:4 0.000458384
6 *87:5 0.000740304
7 *87:6 0.000557482
8 *87:7 0.000487083
9 *87:8 0.000557482
10 *87:9 0.000106806
11 *87:10 0.00142702
12 *87:11 0.000122658
13 *87:12 0.00142702
14 *87:13 0.000135505

*RES
1 *87:10 *693:B 9.00006
2 *87:10 *87:12 9.60960007
3 *87:11 *87:12 9.00006
4 *87:11 *87:13 0.866295
5 *87:9 *87:13 0.577432
6 *87:8 *87:9 0.577432
7 *87:6 *87:8 5.77506
8 *87:6 *87:7 0.577432
9 *87:4 *87:7 5.19748
10 *87:4 *87:5 0.288716
11 *87:3 *87 0.184755
12 *87:2 *87:5 8.3738
13 *87:2 *87:3 9.00006
*END

*D_NET *88 0.00536985

*CONN
*P *88 I *C 14.91 135.24 *L 0
*I *692:B I *C 34.23 110.67 *L 0.00164 *D AO22JIX0

*CAP
1 *88 0.000460964
2 *692:B 5.28528e-05
3 *88:2 0.00116584
4 *88:3 0.000483823
5 *88:4 0.000814887
6 *88:5 0.000815225
7 *88:6 9.20077e-05
8 *88:7 9.91947e-05
9 *88:8 0.000113373
10 *88:9 0.00116584
11 *88:10 0.000105848

*RES
1 *88:6 *692:B 8.99998
2 *88:6 *88:7 0.554316
3 *88:4 *88:7 0.184839
4 *88:4 *88:5 5.72881
5 *88:5 *88:8 0.184839
6 *88:8 *88:10 0.554316
7 *88:9 *88:10 8.99998
8 *88:3 *88 3.69598
9 *88:2 *88:9 13.2825003
10 *88:2 *88:3 8.99998
*END

*D_NET *89 0.00595191

*CONN
*P *89 I *C 9.87 135.24 *L 0
*I *691:B I *C 23.31 100.17 *L 0.00164 *D AO22JIX0

*CAP
1 *89 0.0011524
2 *691:B 2.57869e-05
3 *89:2 0.00121317
4 *89:3 8.3192e-05
5 *89:4 0.000884067
6 *89:5 0.000921961
7 *89:6 8.16e-05
8 *89:7 0.000601485
9 *89:8 0.000137432
10 *89:9 0.000601485
11 *89:10 0.000166125
12 *89:11 8.3192e-05

*RES
1 *89:11 *691:B 0.28875
2 *89:10 *89:11 0.5775
3 *89:8 *89:10 1.155
4 *89:8 *89:9 0.28875
5 *89:7 *89:9 6.64125
6 *89:6 *89:7 0.28875
7 *89:3 *89:6 0.5775
8 *89:4 *89:3 9.00003
9 *89:4 *89:5 6.46797
10 *89:2 *89:5 0.369538
11 *89:2 *89 9.23999977
*END

*D_NET *90 0.00863985

*CONN
*P *90 I *C 4.83 135.24 *L 0
*I *689:B I *C 39.69 95.55 *L 0.00164 *D AO22JIX0

*CAP
1 *90 0.000138271
2 *689:B 5.28546e-05
3 *90:4 0.000161143
4 *90:5 0.00203629
5 *90:6 4.57129e-05
6 *90:7 4.57129e-05
7 *90:8 0.0020618
8 *90:9 0.00203629
9 *90:10 0.0020618

*RES
1 *90:4 *90 1.10887
2 *90:5 *90:4 8.99998
3 *90:5 *90:9 15.3384
4 *90:10 *90:9 8.99998
5 *90:6 *689:B 8.99998
6 *90:3 *90:6 0.256855
7 *90:8 *90:10 16.0776005
8 *90:7 *90:6 8.99998
9 *90:7 *90:8 8.99998
10 *90:2 *90:7 0.256855
*END

*D_NET *91 0.00281615

*CONN
*P *91 I *C 80.43 135.24 *L 0
*I *706:B I *C 80.43 110.67 *L 0.00164 *D AO22JIX0

*CAP
1 *91 0.00137023
2 *706:B 5.2845e-05
3 *91:2 0.00139308

*RES
1 *91:2 *91 10.5335999
2 *706:B *91:2 9.00008
*END

*D_NET *92 0.00432805

*CONN
*P *92 I *C 75.39 135.24 *L 0
*I *705:B I *C 64.47 110.67 *L 0.00164 *D AO22JIX0

*CAP
1 *92 0.000437897
2 *705:B 5.28502e-05
3 *92:2 0.0010157
4 *92:3 0.000672577
5 *92:4 0.0010157
6 *92:5 0.000672577
7 *92:6 0.000460758

*RES
1 *92:6 *92 3.51123
2 *92:5 *92:6 9
3 *92:3 *92:5 7.50751
4 *92:4 *92:3 9
5 *92:2 *92:4 7.02246
6 *705:B *92:2 9
*END

*D_NET *93 0.00287157

*CONN
*P *93 I *C 70.35 135.24 *L 0
*I *704:B I *C 72.03 110.67 *L 0.00164 *D AO22JIX0

*CAP
1 *93 0.00124458
2 *704:B 2.57801e-05
3 *93:2 0.000111649
4 *93:3 0.00126744
5 *93:4 8.32776e-05
6 *93:5 0.000138841

*RES
1 *93:4 *704:B 0.288705
2 *93:4 *93:5 0.577562
3 *93:3 *93 9.97920036
4 *93:2 *93:5 0.866267
5 *93:2 *93:3 8.99995
*END

*D_NET *94 0.00351221

*CONN
*P *94 I *C 65.31 135.24 *L 0
*I *703:B I *C 67.83 110.67 *L 0.00164 *D AO22JIX0

*CAP
1 *94 0.000418358
2 *703:B 2.57742e-05
3 *94:2 0.000168756
4 *94:3 0.000118903
5 *94:4 0.000126231
6 *94:5 0.000448748
7 *94:6 0.000966104
8 *94:7 0.00096631
9 *94:8 8.32795e-05
10 *94:9 0.000189723

*RES
1 *94:5 *94 3.14154
2 *94:5 *94:7 0.184845
3 *94:6 *94:7 6.28322
4 *94:8 *703:B 0.288803
5 *94:4 *94:6 0.184845
6 *94:8 *94:9 0.577469
7 *94:3 *94:4 0.554398
8 *94:2 *94:9 1.44374
9 *94:2 *94:3 9
*END

*D_NET *95 0.00523099

*CONN
*P *95 I *C 60.27 135.24 *L 0
*I *702:B I *C 64.89 100.17 *L 0.00164 *D AO22JIX0

*CAP
1 *95 6.91374e-05
2 *702:B 5.28439e-05
3 *95:2 0.000221384
4 *95:3 9.19964e-05
5 *95:4 0.00131179
6 *95:5 0.00122147
7 *95:6 0.000379595
8 *95:7 0.000221384
9 *95:8 0.000372069
10 *95:9 0.000595735
11 *95:10 0.000693576

*RES
1 *95:9 *702:B 9.00003
2 *95:9 *95:10 2.77203
3 *95:4 *95:10 0.739217
4 *95:4 *95:5 9.23999977
5 *95:5 *95:6 0.184839
6 *95:6 *95:8 2.58719
7 *95:7 *95:8 9.00003
8 *95:3 *95 0.554377
9 *95:2 *95:7 2.31
10 *95:2 *95:3 9.00003
*END

*D_NET *96 0.00351853

*CONN
*P *96 I *C 55.23 135.24 *L 0
*I *701:B I *C 59.43 110.67 *L 0.00164 *D AO22JIX0

*CAP
1 *96 8.29864e-05
2 *701:B 2.57809e-05
3 *96:2 0.00120062
4 *96:3 0.00120082
5 *96:4 0.000278606
6 *96:5 0.000109977
7 *96:6 0.000117306
8 *96:7 0.000113385
9 *96:8 8.32796e-05
10 *96:9 0.000305798

*RES
1 *96:8 *701:B 0.288803
2 *96:8 *96:9 0.577469
3 *96:4 *96:9 2.59882
4 *96:5 *96:4 9
5 *96:7 *96 0.554398
6 *96:5 *96:6 0.554398
7 *96:3 *96:7 0.184845
8 *96:2 *96:6 0.184845
9 *96:2 *96:3 8.87036
*END

*D_NET *97 0.00476728

*CONN
*P *97 I *C 50.19 135.24 *L 0
*I *700:B I *C 56.07 103.11 *L 0.00164 *D AO22JIX0

*CAP
1 *97 4.57094e-05
2 *700:B 5.28467e-05
3 *97:2 0.000364925
4 *97:3 0.000451226
5 *97:4 0.000458556
6 *97:5 0.00126076
7 *97:6 0.000364925
8 *97:7 0.00125324
9 *97:8 0.000257442
10 *97:9 0.000257654

*RES
1 *97:3 *700:B 9.00007
2 *97:3 *97:4 3.1416
3 *97:4 *97:8 0.184735
4 *97:8 *97:9 1.66317
5 *97:5 *97:9 0.184735
6 *97:5 *97:7 9.05519962
7 *97:6 *97:7 9.00007
8 *97:2 *97:6 4.04248
9 *97:2 *97 9.00007
*END

*D_NET *98 0.00525419

*CONN
*P *98 I *C 45.15 135.24 *L 0
*I *699:B I *C 51.87 100.17 *L 0.00164 *D AO22JIX0

*CAP
1 *98 0.000161326
2 *699:B 5.28508e-05
3 *98:2 0.000407597
4 *98:3 0.000184185
5 *98:4 0.000407597
6 *98:5 5.3247e-05
7 *98:6 0.00198992
8 *98:7 0.00199745

*RES
1 *98:6 *699:B 9.00003
2 *98:6 *98:7 13.8599997
3 *98:5 *98:7 0.184839
4 *98:4 *98:5 9.00003
5 *98:3 *98 1.29366
6 *98:2 *98:4 4.33125
7 *98:2 *98:3 9.00003
*END

*D_NET *99 0.00470959

*CONN
*P *99 I *C 120.75 135.24 *L 0
*I *715:B I *C 106.47 110.67 *L 0.00164 *D AO22JIX0

*CAP
1 *99 0.000714478
2 *715:B 5.28472e-05
3 *99:2 0.000743713
4 *99:3 0.00085875
5 *99:4 0.000743713
6 *99:5 0.00085875
7 *99:6 0.000737344

*RES
1 *99:6 *99 5.72877
2 *99:5 *99:6 9.00002
3 *99:3 *99:5 9.81750011
4 *99:4 *99:3 9.00002
5 *99:2 *99:4 4.80479
6 *715:B *99:2 9.00002
*END

*D_NET *100 0.00389504

*CONN
*P *100 I *C 115.71 135.24 *L 0
*I *713:B I *C 111.93 107.73 *L 0.00164 *D AO22JIX0

*CAP
1 *100 4.57087e-05
2 *713:B 5.28515e-05
3 *100:2 0.00165407
4 *100:3 0.000244167
5 *100:4 0.00165407
6 *100:5 0.000244167

*RES
1 *100:5 *100 8.99998
2 *100:3 *100:5 2.59875
3 *100:4 *100:3 8.99998
4 *100:2 *100:4 11.8271999
5 *713:B *100:2 8.99998
*END

*D_NET *101 0.00406785

*CONN
*P *101 I *C 110.67 135.24 *L 0
*I *712:B I *C 109.83 103.11 *L 0.00164 *D AO22JIX0

*CAP
1 *101 0.00107255
2 *712:B 5.28455e-05
3 *101:2 7.27552e-05
4 *101:3 7.99751e-05
5 *101:4 0.00084324
6 *101:5 0.000843543
7 *101:6 0.00110294

*RES
1 *101:6 *101 7.94641
2 *101:5 *101:6 0.184845
3 *101:4 *101:5 5.54398
4 *101:3 *101:4 0.184845
5 *101:2 *101:3 0.369553
6 *712:B *101:2 9
*END

*D_NET *102 0.00639727

*CONN
*P *102 I *C 105.63 135.24 *L 0
*I *711:B I *C 89.67 103.11 *L 0.00164 *D AO22JIX0

*CAP
1 *102 0.000668373
2 *711:B 5.28508e-05
3 *102:2 0.000270972
4 *102:3 0.000270972
5 *102:4 0.000479024
6 *102:5 0.000711185
7 *102:6 0.000730243
8 *102:7 0.00100461
9 *102:8 0.000498083
10 *102:9 0.00101215
11 *102:10 0.000698767

*RES
1 *102:10 *102 5.35927
2 *102:9 *102:10 0.184845
3 *102:7 *102:9 7.02246
4 *102:8 *102:7 9
5 *102:6 *102:8 2.03275
6 *102:5 *102:6 1.29364
7 *102:4 *102:5 3.51123
8 *102:3 *102:4 9
9 *102:2 *102:3 1.47835
10 *711:B *102:2 9
*END

*D_NET *103 0.00291201

*CONN
*P *103 I *C 100.59 135.24 *L 0
*I *710:B I *C 100.17 110.67 *L 0.00164 *D AO22JIX0

*CAP
1 *103 0.000691436
2 *710:B 5.28496e-05
3 *103:2 0.000719181
4 *103:3 0.00072671
5 *103:4 0.000721831

*RES
1 *103:4 *103 5.54398
2 *103:3 *103:4 0.184845
3 *103:2 *103:3 4.98958
4 *710:B *103:2 9
*END

*D_NET *104 0.00293769

*CONN
*P *104 I *C 95.55 135.24 *L 0
*I *709:B I *C 94.71 110.67 *L 0.00164 *D AO22JIX0

*CAP
1 *104 6.07682e-05
2 *709:B 5.28419e-05
3 *104:2 0.00139308
4 *104:3 0.00143099

*RES
1 *104:3 *104 0.369679
2 *104:2 *104:3 10.5335999
3 *709:B *104:2 9.00008
*END

*D_NET *105 0.00437534

*CONN
*P *105 I *C 90.51 135.24 *L 0
*I *708:B I *C 86.31 103.11 *L 0.00164 *D AO22JIX0

*CAP
1 *105 4.57068e-05
2 *708:B 5.28526e-05
3 *105:2 0.000464171
4 *105:3 0.000639896
5 *105:4 0.00140629
6 *105:5 0.000267932
7 *105:6 0.00123057
8 *105:7 0.000267932

*RES
1 *105:7 *105 9.00006
2 *105:5 *105:7 2.88745
3 *105:6 *105:5 9.00006
4 *105:4 *105:6 9.60960007
5 *105:3 *105:4 1.29358
6 *105:2 *105:3 2.95681
7 *708:B *105:2 9.00006
*END

*D_NET *106 0.00413093

*CONN
*P *106 I *C 85.47 135.24 *L 0
*I *707:B I *C 83.37 103.11 *L 0.00164 *D AO22JIX0

*CAP
1 *106 5.53374e-05
2 *707:B 5.28413e-05
3 *106:2 0.000502457
4 *106:3 0.000502457
5 *106:4 7.63004e-05
6 *106:5 8.35349e-05
7 *106:6 0.00126445
8 *106:7 0.00138629
9 *106:8 0.000207261

*RES
1 *106:8 *106 0.369592
2 *106:7 *106:8 0.924054
3 *106:4 *707:B 9.00007
4 *106:6 *106:7 9.79440022
5 *106:4 *106:5 0.554462
6 *106:3 *106:6 0.18487
7 *106:2 *106:5 0.18487
8 *106:2 *106:3 3.1416
*END

*D_NET *107 0.0138059

*CONN
*P *107 I *C 130.83 135.24 *L 0
*I *769:B I *C 68.67 92.61 *L 0.0017 *D AND2JIX1
*I *751:B I *C 76.23 92.61 *L 0.00163 *D ON21JIX0
*I *694:A I *C 71.61 92.61 *L 0.00166 *D ON31JIX0

*CAP
1 *107 0.000161332
2 *769:B 5.28571e-05
3 *751:B 8.39474e-05
4 *694:A 5.28571e-05
5 *107:7 4.5721e-05
6 *107:8 0.000221541
7 *107:9 4.5721e-05
8 *107:10 0.000523766
9 *107:11 4.5721e-05
10 *107:12 0.000350528
11 *107:13 5.56183e-05
12 *107:14 0.000625141
13 *107:15 0.000679504
14 *107:16 0.000655299
15 *107:17 0.00050268
16 *107:18 0.00064931
17 *107:19 0.00050268
18 *107:20 0.000904523
19 *107:21 0.00235006
20 *107:22 0.000897208
21 *107:23 0.00235006
22 *107:24 0.000932852
23 *107:25 0.000184211
24 *107:26 0.000932852

*RES
1 *107:25 *107 1.29361
2 *107:26 *107:25 9.00008
3 *107:24 *107:26 6.83772
4 *107:23 *107:24 9.00008
5 *107:21 *107:23 17.5559998
6 *107:22 *107:21 9.00008
7 *107:20 *107:22 6.46804
8 *107:19 *107:20 0.184839
9 *107:17 *107:19 3.51115
10 *107:17 *107:18 0.184839
11 *107:15 *107:18 3.32631
12 *107:7 *769:B 9.00008
13 *107:6 *107:7 0.2569
14 *107:15 *107:16 0.369679
15 *107:9 *694:A 9.00008
16 *107:5 *107:9 0.2569
17 *107:8 *107:7 9.00008
18 *107:14 *107:16 3.69599
19 *107:10 *107:9 9.00008
20 *107:8 *107:10 1.29361
21 *107:13 *107:14 0.184839
22 *107:10 *107:12 2.0327
23 *107:12 *107:13 0.184839
24 *107:11 *751:B 9.00008
25 *107:11 *107:12 9.00008
26 *107:4 *107:11 0.21136
*END

*D_NET *108 0.11171

*CONN
*P *108 I *C 10.29 0 *L 0
*I *970:C I *C 97.23 47.25 *L 0.00125 *D SDFRRQJIX1
*I *966:C I *C 99.33 35.07 *L 0.00125 *D SDFRRQJIX1
*I *961:C I *C 97.23 32.13 *L 0.00125 *D SDFRRQJIX1
*I *955:C I *C 108.15 32.13 *L 0.00125 *D SDFRRQJIX1
*I *953:C I *C 97.65 77.49 *L 0.00124 *D SDFRQJIX1
*I *951:C I *C 98.07 69.93 *L 0.00124 *D SDFRQJIX1
*I *949:C I *C 96.81 62.37 *L 0.00124 *D SDFRQJIX1
*I *947:C I *C 96.39 50.19 *L 0.00124 *D SDFRQJIX1
*I *680:C I *C 108.99 39.69 *L 0.00125 *D SDFRRQJIX1
*I *679:C I *C 107.73 57.75 *L 0.00125 *D SDFRRQJIX1
*I *678:C I *C 108.15 62.37 *L 0.00124 *D SDFRRSJIX1
*I *677:C I *C 108.15 87.99 *L 0.00124 *D SDFRRSJIX1
*I *676:C I *C 95.97 95.55 *L 0.00124 *D SDFRRSJIX1
*I *675:C I *C 108.15 42.63 *L 0.00125 *D SDFRRQJIX1
*I *674:C I *C 108.15 47.25 *L 0.00125 *D SDFRRQJIX1
*I *673:C I *C 108.99 77.49 *L 0.00124 *D SDFRRSJIX1
*I *672:C I *C 108.15 80.43 *L 0.00124 *D SDFRRSJIX1
*I *671:C I *C 99.75 92.61 *L 0.00124 *D SDFRRSJIX1
*I *670:C I *C 82.95 24.57 *L 0.00125 *D SDFRRQJIX1
*I *669:C I *C 50.61 32.13 *L 0.00125 *D SDFRRQJIX1
*I *668:C I *C 61.95 57.75 *L 0.00124 *D SDFRRSJIX1
*I *667:C I *C 74.97 50.19 *L 0.00124 *D SDFRRSJIX1
*I *666:C I *C 87.57 92.61 *L 0.00124 *D SDFRRSJIX1
*I *665:C I *C 72.03 24.57 *L 0.00125 *D SDFRRQJIX1
*I *664:C I *C 50.19 35.07 *L 0.00125 *D SDFRRQJIX1
*I *663:C I *C 49.77 57.75 *L 0.00124 *D SDFRRSJIX1
*I *662:C I *C 74.97 54.81 *L 0.00124 *D SDFRRSJIX1
*I *661:C I *C 85.89 87.99 *L 0.00124 *D SDFRRSJIX1
*I *660:C I *C 50.19 24.57 *L 0.00125 *D SDFRRQJIX1
*I *659:C I *C 50.61 42.63 *L 0.00125 *D SDFRRQJIX1
*I *658:C I *C 61.95 54.81 *L 0.00124 *D SDFRRSJIX1
*I *657:C I *C 54.39 65.31 *L 0.00124 *D SDFRRSJIX1
*I *656:C I *C 85.47 80.43 *L 0.00124 *D SDFRRSJIX1
*I *655:C I *C 61.11 24.57 *L 0.00125 *D SDFRRQJIX1
*I *654:C I *C 50.61 47.25 *L 0.00125 *D SDFRRQJIX1
*I *653:C I *C 51.45 50.19 *L 0.00124 *D SDFRRSJIX1
*I *652:C I *C 53.55 72.87 *L 0.00124 *D SDFRRSJIX1
*I *651:C I *C 73.29 80.43 *L 0.00124 *D SDFRRSJIX1
*I *650:C I *C 50.19 77.49 *L 0.00125 *D SDFRRQJIX1
*I *649:C I *C 64.89 77.49 *L 0.00125 *D SDFRRQJIX1
*I *648:C I *C 52.29 80.43 *L 0.00125 *D SDFRRQJIX1
*I *647:C I *C 74.55 85.05 *L 0.00125 *D SDFRRQJIX1
*I *646:C I *C 62.79 92.61 *L 0.00125 *D SDFRRQJIX1
*I *645:C I *C 106.05 107.73 *L 0.00125 *D SDFRRQJIX1
*I *644:C I *C 108.15 100.17 *L 0.00125 *D SDFRRQJIX1
*I *643:C I *C 106.89 95.55 *L 0.00125 *D SDFRRQJIX1
*I *642:C I *C 97.23 100.17 *L 0.00125 *D SDFRRQJIX1
*I *641:C I *C 98.07 103.11 *L 0.00125 *D SDFRRQJIX1
*I *640:C I *C 95.13 107.73 *L 0.00125 *D SDFRRQJIX1
*I *639:C I *C 83.79 95.55 *L 0.00125 *D SDFRRQJIX1
*I *638:C I *C 85.05 100.17 *L 0.00125 *D SDFRRQJIX1
*I *637:C I *C 84.21 107.73 *L 0.00125 *D SDFRRQJIX1
*I *636:C I *C 64.05 103.11 *L 0.00125 *D SDFRRQJIX1
*I *635:C I *C 73.29 107.73 *L 0.00125 *D SDFRRQJIX1
*I *634:C I *C 74.97 103.11 *L 0.00125 *D SDFRRQJIX1
*I *633:C I *C 64.89 95.55 *L 0.00125 *D SDFRRQJIX1
*I *632:C I *C 61.53 107.73 *L 0.00125 *D SDFRRQJIX1
*I *631:C I *C 50.19 103.11 *L 0.00125 *D SDFRRQJIX1
*I *630:C I *C 51.87 92.61 *L 0.00125 *D SDFRRQJIX1
*I *629:C I *C 50.61 95.55 *L 0.00125 *D SDFRRQJIX1
*I *628:C I *C 39.69 107.73 *L 0.00125 *D SDFRRQJIX1
*I *627:C I *C 28.77 107.73 *L 0.00125 *D SDFRRQJIX1
*I *626:C I *C 28.35 103.11 *L 0.00125 *D SDFRRQJIX1
*I *625:C I *C 50.61 107.73 *L 0.00125 *D SDFRRQJIX1
*I *624:C I *C 39.27 103.11 *L 0.00125 *D SDFRRQJIX1
*I *623:C I *C 31.29 100.17 *L 0.00125 *D SDFRRQJIX1
*I *622:C I *C 40.95 92.61 *L 0.00125 *D SDFRRQJIX1
*I *621:C I *C 31.29 95.55 *L 0.00125 *D SDFRRQJIX1
*I *620:C I *C 41.37 80.43 *L 0.00125 *D SDFRRQJIX1
*I *619:C I *C 29.61 92.61 *L 0.00125 *D SDFRRQJIX1
*I *618:C I *C 29.19 85.05 *L 0.00125 *D SDFRRQJIX1
*I *617:C I *C 42.21 87.99 *L 0.00125 *D SDFRRQJIX1
*I *616:C I *C 43.05 69.93 *L 0.00125 *D SDFRRQJIX1
*I *615:C I *C 29.19 77.49 *L 0.00125 *D SDFRRQJIX1
*I *614:C I *C 29.61 72.87 *L 0.00125 *D SDFRRQJIX1
*I *613:C I *C 41.37 72.87 *L 0.00125 *D SDFRRQJIX1
*I *612:C I *C 31.29 69.93 *L 0.00125 *D SDFRRQJIX1
*I *611:C I *C 42.21 65.31 *L 0.00125 *D SDFRRQJIX1
*I *610:C I *C 28.35 65.31 *L 0.00125 *D SDFRRQJIX1
*I *609:C I *C 44.73 62.37 *L 0.00125 *D SDFRRQJIX1
*I *608:C I *C 31.29 62.37 *L 0.00125 *D SDFRRQJIX1
*I *607:C I *C 31.29 47.25 *L 0.00125 *D SDFRRQJIX1
*I *606:C I *C 28.77 42.63 *L 0.00125 *D SDFRRQJIX1
*I *605:C I *C 39.69 42.63 *L 0.00125 *D SDFRRQJIX1
*I *604:C I *C 40.11 39.69 *L 0.00125 *D SDFRRQJIX1
*I *603:C I *C 29.19 39.69 *L 0.00125 *D SDFRRQJIX1
*I *602:C I *C 28.35 24.57 *L 0.00125 *D SDFRRQJIX1
*I *601:C I *C 39.27 24.57 *L 0.00125 *D SDFRRQJIX1
*I *600:C I *C 39.69 32.13 *L 0.00125 *D SDFRRQJIX1
*I *599:C I *C 28.77 32.13 *L 0.00125 *D SDFRRQJIX1
*I *598:C I *C 29.61 54.81 *L 0.00125 *D SDFRRQJIX1

*CAP
1 *108 2.30301e-05
2 *970:C 5.28639e-05
3 *966:C 5.28639e-05
4 *961:C 5.28639e-05
5 *955:C 5.28639e-05
6 *953:C 5.28639e-05
7 *951:C 5.28639e-05
8 *949:C 5.28639e-05
9 *947:C 5.28639e-05
10 *680:C 5.28639e-05
11 *679:C 5.28639e-05
12 *678:C 5.28639e-05
13 *677:C 5.28639e-05
14 *676:C 5.28639e-05
15 *675:C 5.28639e-05
16 *674:C 5.28639e-05
17 *673:C 5.28639e-05
18 *672:C 5.28639e-05
19 *671:C 5.28639e-05
20 *670:C 5.28639e-05
21 *669:C 5.28639e-05
22 *668:C 5.28639e-05
23 *667:C 5.28639e-05
24 *666:C 5.28639e-05
25 *665:C 5.28639e-05
26 *664:C 5.28639e-05
27 *663:C 5.28639e-05
28 *662:C 5.28639e-05
29 *661:C 5.28639e-05
30 *660:C 5.28639e-05
31 *659:C 5.28639e-05
32 *658:C 5.28639e-05
33 *657:C 5.28639e-05
34 *656:C 5.28639e-05
35 *655:C 5.28639e-05
36 *654:C 5.28639e-05
37 *653:C 5.28639e-05
38 *652:C 5.28639e-05
39 *651:C 5.28639e-05
40 *650:C 5.28639e-05
41 *649:C 5.28639e-05
42 *648:C 5.28639e-05
43 *647:C 5.28639e-05
44 *646:C 5.28639e-05
45 *645:C 5.28639e-05
46 *644:C 5.28639e-05
47 *643:C 5.28639e-05
48 *642:C 5.28639e-05
49 *641:C 5.28639e-05
50 *640:C 5.28639e-05
51 *639:C 5.28639e-05
52 *638:C 5.28639e-05
53 *637:C 5.28639e-05
54 *636:C 5.28639e-05
55 *635:C 5.28639e-05
56 *634:C 5.28639e-05
57 *633:C 5.28639e-05
58 *632:C 5.28639e-05
59 *631:C 5.28639e-05
60 *630:C 5.28639e-05
61 *629:C 5.28639e-05
62 *628:C 5.28639e-05
63 *627:C 5.28639e-05
64 *626:C 5.28639e-05
65 *625:C 5.28639e-05
66 *624:C 5.28639e-05
67 *623:C 5.28639e-05
68 *622:C 5.28639e-05
69 *621:C 5.28639e-05
70 *620:C 5.28639e-05
71 *619:C 5.28639e-05
72 *618:C 5.28639e-05
73 *617:C 5.28639e-05
74 *616:C 5.28639e-05
75 *615:C 5.28639e-05
76 *614:C 5.28639e-05
77 *613:C 5.28639e-05
78 *612:C 5.28639e-05
79 *611:C 5.28639e-05
80 *610:C 5.28639e-05
81 *609:C 5.28639e-05
82 *608:C 5.28639e-05
83 *607:C 5.28639e-05
84 *606:C 5.28639e-05
85 *605:C 5.28639e-05
86 *604:C 5.28639e-05
87 *603:C 5.28639e-05
88 *602:C 5.28639e-05
89 *601:C 5.28639e-05
90 *600:C 5.28639e-05
91 *599:C 5.28639e-05
92 *598:C 5.28639e-05
93 *108:185 4.58894e-05
94 *108:186 0.00109073
95 *108:187 4.57186e-05
96 *108:188 7.3759e-05
97 *108:189 4.57186e-05
98 *108:190 8.79927e-05
99 *108:191 4.57186e-05
100 *108:192 7.91393e-05
101 *108:193 4.57186e-05
102 *108:194 4.83092e-05
103 *108:195 4.57186e-05
104 *108:196 5.10135e-05
105 *108:197 4.57186e-05
106 *108:198 5.27216e-05
107 *108:199 0.00109073
108 *108:200 0.00143826
109 *108:201 0.000788319
110 *108:202 0.00186561
111 *108:203 4.83092e-05
112 *108:204 0.000893221
113 *108:205 4.57186e-05
114 *108:206 4.57186e-05
115 *108:207 0.000636417
116 *108:208 5.10135e-05
117 *108:209 0.00045024
118 *108:210 0.000150109
119 *108:211 0.000724153
120 *108:212 4.83092e-05
121 *108:213 0.000898971
122 *108:214 0.000163887
123 *108:215 0.000638011
124 *108:216 8.79927e-05
125 *108:217 0.00047791
126 *108:218 0.000169836
127 *108:219 0.000467378
128 *108:220 4.83092e-05
129 *108:221 0.000450212
130 *108:222 4.57186e-05
131 *108:223 4.57186e-05
132 *108:224 0.000725776
133 *108:225 4.57186e-05
134 *108:226 4.57186e-05
135 *108:227 0.000915881
136 *108:228 4.83092e-05
137 *108:229 0.00065085
138 *108:230 0.000147176
139 *108:231 0.000477085
140 *108:232 0.000140401
141 *108:233 0.000466552
142 *108:234 0.000790625
143 *108:235 0.000464958
144 *108:236 0.00104228
145 *108:237 0.00029199
146 *108:238 4.57186e-05
147 *108:239 4.83092e-05
148 *108:240 4.57186e-05
149 *108:241 4.83092e-05
150 *108:242 4.57186e-05
151 *108:243 4.83092e-05
152 *108:244 4.57186e-05
153 *108:245 0.000150109
154 *108:246 4.57186e-05
155 *108:247 0.00114436
156 *108:248 4.57186e-05
157 *108:249 0.00088767
158 *108:250 4.57186e-05
159 *108:251 0.000147176
160 *108:252 4.57186e-05
161 *108:253 0.000140401
162 *108:254 6.03509e-05
163 *108:255 4.57186e-05
164 *108:256 0.000725662
165 *108:257 0.000554089
166 *108:258 0.00137961
167 *108:259 0.00113403
168 *108:260 0.000796745
169 *108:261 0.000203513
170 *108:262 4.57186e-05
171 *108:263 0.00100376
172 *108:264 6.01231e-05
173 *108:265 4.57186e-05
174 *108:266 0.000102141
175 *108:267 4.57186e-05
176 *108:268 8.7281e-05
177 *108:269 4.57186e-05
178 *108:270 8.3324e-05
179 *108:271 4.57186e-05
180 *108:272 4.57186e-05
181 *108:273 0.000328314
182 *108:274 0.000791593
183 *108:275 0.000526647
184 *108:276 8.7281e-05
185 *108:277 0.000732437
186 *108:278 0.000651163
187 *108:279 0.00100538
188 *108:280 4.57186e-05
189 *108:281 4.57186e-05
190 *108:282 0.000771096
191 *108:283 0.000649683
192 *108:284 0.000299847
193 *108:285 4.57186e-05
194 *108:286 7.3759e-05
195 *108:287 4.57186e-05
196 *108:288 0.00099465
197 *108:289 4.57186e-05
198 *108:290 7.91393e-05
199 *108:291 4.57186e-05
200 *108:292 0.000699187
201 *108:293 4.57186e-05
202 *108:294 4.66011e-05
203 *108:295 0.00017738
204 *108:296 0.00017738
205 *108:297 0.000693124
206 *108:298 6.01231e-05
207 *108:299 0.00077084
208 *108:300 0.000461314
209 *108:301 4.57186e-05
210 *108:302 4.57186e-05
211 *108:303 0.000631862
212 *108:304 4.66011e-05
213 *108:305 0.00070266
214 *108:306 9.20066e-05
215 *108:307 0.000295975
216 *108:308 4.57186e-05
217 *108:309 0.000890118
218 *108:310 0.000218174
219 *108:311 8.25839e-05
220 *108:312 0.000637669
221 *108:313 0.000772462
222 *108:314 0.00045024
223 *108:315 0.000354248
224 *108:316 0.000184753
225 *108:317 0.000181736
226 *108:318 0.000651932
227 *108:319 0.000700098
228 *108:320 0.000898801
229 *108:321 0.000998864
230 *108:322 0.000366034
231 *108:323 4.57186e-05
232 *108:324 8.25839e-05
233 *108:325 4.57186e-05
234 *108:326 0.000844656
235 *108:327 4.57186e-05
236 *108:328 0.000125256
237 *108:329 4.57186e-05
238 *108:330 8.08189e-05
239 *108:331 0.000843318
240 *108:332 0.000457414
241 *108:333 4.57186e-05
242 *108:334 4.57186e-05
243 *108:335 0.000902615
244 *108:336 8.08189e-05
245 *108:337 0.000901477
246 *108:338 0.000715926
247 *108:339 0.000456275
248 *108:340 4.57186e-05
249 *108:341 0.00138736
250 *108:342 4.57186e-05
251 *108:343 0.000913518
252 *108:344 4.57186e-05
253 *108:345 0.00170955
254 *108:346 4.57186e-05
255 *108:347 0.000568209
256 *108:348 4.57186e-05
257 *108:349 0.000908053
258 *108:350 4.57186e-05
259 *108:351 0.00165726
260 *108:352 0.000183558
261 *108:353 0.000183558
262 *108:354 0.00125447
263 *108:355 0.000288147
264 *108:356 0.000167758
265 *108:357 0.000288147
266 *108:358 4.57186e-05
267 *108:359 0.00134913
268 *108:360 4.57186e-05
269 *108:361 0.000642907
270 *108:362 0.000798994
271 *108:363 0.000295634
272 *108:364 4.57186e-05
273 *108:365 0.000913518
274 *108:366 0.000295634
275 *108:367 0.000807193
276 *108:368 0.00029014
277 *108:369 4.57186e-05
278 *108:370 4.57186e-05
279 *108:371 0.00029014
280 *108:372 0.00034195
281 *108:373 0.00034195
282 *108:374 0.000951295
283 *108:375 4.57186e-05
284 *108:376 0.0001406
285 *108:377 4.57186e-05
286 *108:378 0.00156337
287 *108:379 7.01436e-05
288 *108:380 0.000172171
289 *108:381 7.01436e-05
290 *108:382 4.57186e-05
291 *108:383 0.000137953
292 *108:384 4.57186e-05
293 *108:385 8.25839e-05
294 *108:386 4.57186e-05
295 *108:387 0.000717008
296 *108:388 9.34584e-05
297 *108:389 0.000101002
298 *108:390 0.000403013
299 *108:391 4.57186e-05
300 *108:392 4.57186e-05
301 *108:393 0.000678093
302 *108:394 0.000136814
303 *108:395 0.000423538
304 *108:396 0.000172171
305 *108:397 0.000468061
306 *108:398 8.25839e-05
307 *108:399 0.000805655
308 *108:400 0.000137953
309 *108:401 0.000478508
310 *108:402 4.57186e-05
311 *108:403 0.000739953
312 *108:404 4.57186e-05
313 *108:405 7.3759e-05
314 *108:406 0.000858092
315 *108:407 0.000199442
316 *108:408 4.57186e-05
317 *108:409 0.000797713
318 *108:410 0.000479647
319 *108:411 0.000112446
320 *108:412 0.000479704
321 *108:413 0.000120531
322 *108:414 0.000487048
323 *108:415 0.000755838
324 *108:416 0.000301754
325 *108:417 4.57186e-05
326 *108:418 8.25839e-05
327 *108:419 4.57186e-05
328 *108:420 4.66011e-05
329 *108:421 0.000879101
330 *108:422 0.000462225
331 *108:423 4.57186e-05
332 *108:424 0.000729818
333 *108:425 0.000647519
334 *108:426 0.000165253
335 *108:427 0.000903242
336 *108:428 4.57186e-05
337 *108:429 4.57186e-05
338 *108:430 0.000890944
339 *108:431 8.25839e-05
340 *108:432 0.000907796
341 *108:433 4.66011e-05
342 *108:434 0.00116218
343 *108:435 7.03144e-05
344 *108:436 0.000868881
345 *108:437 5.00172e-05
346 *108:438 0.000441529
347 *108:439 4.57186e-05
348 *108:440 0.000861224
349 *108:441 4.57186e-05
350 *108:442 0.000750998
351 *108:443 4.57186e-05
352 *108:444 7.03144e-05
353 *108:445 4.57186e-05
354 *108:446 0.000120531
355 *108:447 4.57186e-05
356 *108:448 0.000165253
357 *108:449 4.57186e-05
358 *108:450 0.000254954
359 *108:451 4.57186e-05
360 *108:452 0.000696255
361 *108:453 4.57186e-05
362 *108:454 0.000797713
363 *108:455 4.57186e-05
364 *108:456 4.66011e-05
365 *108:457 0.000643961
366 *108:458 0.000729818
367 *108:459 0.000836685
368 *108:460 7.84276e-05
369 *108:461 0.000501567
370 *108:462 0.0012972
371 *108:463 0.00131329
372 *108:464 4.66011e-05
373 *108:465 0.000324927
374 *108:466 0.000238841
375 *108:467 0.00077474
376 *108:468 0.000760221
377 *108:469 0.000535557
378 *108:470 4.57186e-05
379 *108:471 0.000762926
380 *108:472 4.57186e-05
381 *108:473 7.84276e-05
382 *108:474 4.57186e-05
383 *108:475 7.3759e-05

*RES
1 *108:404 *640:C 8.99993
2 *108:95 *108:404 0.256762
3 *108:451 *645:C 8.99993
4 *108:94 *108:451 0.256762
5 *108:470 *644:C 8.99993
6 *108:106 *108:470 0.256762
7 *108:445 *641:C 8.99993
8 *108:101 *108:445 0.256762
9 *108:405 *108:404 8.99993
10 *108:452 *108:451 8.99993
11 *108:439 *642:C 8.99993
12 *108:107 *108:439 0.256762
13 *108:471 *108:470 8.99993
14 *108:446 *108:445 8.99993
15 *108:405 *108:415 0.369668
16 *108:415 *108:452 4.43522
17 *108:453 *643:C 8.99993
18 *108:111 *108:453 0.256762
19 *108:440 *108:439 8.99993
20 *108:440 *108:471 4.80473
21 *108:413 *108:446 0.923932
22 *108:416 *108:415 8.99993
23 *108:408 *676:C 8.99993
24 *108:112 *108:408 0.256762
25 *108:454 *108:453 8.99993
26 *108:411 *108:440 0.554423
27 *108:414 *108:413 8.99993
28 *108:414 *108:416 2.03278
29 *108:409 *108:408 8.99993
30 *108:110 *108:409 0.256762
31 *108:409 *108:454 4.80473
32 *108:412 *108:411 8.99993
33 *108:412 *108:414 1.2936
34 *108:382 *637:C 8.99993
35 *108:96 *108:382 0.256762
36 *108:410 *108:409 8.99993
37 *108:410 *108:412 2.03278
38 *108:449 *671:C 8.99993
39 *108:115 *108:449 0.256762
40 *108:381 *639:C 8.99993
41 *108:384 *638:C 8.99993
42 *108:108 *108:384 0.256762
43 *108:383 *108:382 8.99993
44 *108:407 *108:410 1.2936
45 *108:450 *108:449 8.99993
46 *108:379 *108:381 0.369668
47 *108:385 *108:384 8.99993
48 *108:383 *108:400 0.739177
49 *108:402 *666:C 8.99993
50 *108:116 *108:402 0.256762
51 *108:406 *108:407 8.99993
52 *108:406 *108:450 1.66327
53 *108:380 *108:379 8.99993
54 *108:385 *108:398 0.369668
55 *108:401 *108:400 8.99993
56 *108:403 *108:402 8.99993
57 *108:403 *108:406 3.69604
58 *108:380 *108:396 0.923932
59 *108:399 *108:398 8.99993
60 *108:399 *108:401 3.32638
61 *108:391 *661:C 8.99993
62 *108:123 *108:391 0.256762
63 *108:394 *108:403 0.739177
64 *108:397 *108:396 8.99993
65 *108:397 *108:399 2.40245
66 *108:392 *108:391 8.99993
67 *108:121 *108:392 0.256762
68 *108:395 *108:394 8.99993
69 *108:395 *108:397 0.923932
70 *108:393 *108:392 8.99993
71 *108:393 *108:395 2.03278
72 *108:369 *647:C 8.99993
73 *108:127 *108:369 0.256762
74 *108:390 *108:393 2.77195
75 *108:370 *108:369 8.99993
76 *108:125 *108:370 0.256762
77 *108:389 *108:390 0.184755
78 *108:371 *108:370 8.99993
79 *108:386 *656:C 8.99993
80 *108:129 *108:386 0.256762
81 *108:388 *108:389 0.554423
82 *108:368 *108:371 2.03278
83 *108:387 *108:386 8.99993
84 *108:387 *108:388 8.99993
85 *108:469 *677:C 8.99993
86 *108:352 *649:C 8.99993
87 *108:360 *651:C 8.99993
88 *108:130 *108:360 0.256762
89 *108:367 *108:368 8.99993
90 *108:367 *108:387 4.80473
91 *108:468 *672:C 8.99993
92 *108:468 *108:469 3.32638
93 *108:474 *673:C 8.99993
94 *108:134 *108:474 0.256762
95 *108:352 *108:353 1.2936
96 *108:361 *108:360 8.99993
97 *108:361 *108:367 0.554423
98 *108:455 *679:C 8.99993
99 *108:154 *108:455 0.256762
100 *108:466 *108:468 1.2936
101 *108:475 *108:474 8.99993
102 *108:329 *652:C 8.99993
103 *108:138 *108:329 0.256762
104 *108:354 *108:353 8.99993
105 *108:354 *108:361 3.69604
106 *108:456 *108:455 8.99993
107 *108:153 *108:456 0.0775339
108 *108:441 *953:C 8.99993
109 *108:135 *108:441 0.256762
110 *108:467 *108:466 8.99993
111 *108:467 *108:475 0.369668
112 *108:330 *108:329 8.99993
113 *108:338 *108:354 4.61998
114 *108:456 *108:464 0.184755
115 *108:465 *678:C 8.99993
116 *108:443 *951:C 8.99993
117 *108:141 *108:443 0.256762
118 *108:442 *108:441 8.99993
119 *108:442 *108:467 4.61998
120 *108:333 *657:C 8.99993
121 *108:146 *108:333 0.256762
122 *108:330 *108:336 0.369668
123 *108:339 *108:338 8.99993
124 *108:472 *680:C 8.99993
125 *108:170 *108:472 0.256762
126 *108:463 *108:464 8.99993
127 *108:463 *108:465 2.03278
128 *108:419 *949:C 8.99993
129 *108:150 *108:419 0.256762
130 *108:444 *108:443 8.99993
131 *108:437 *108:442 0.184755
132 *108:334 *108:333 8.99993
133 *108:144 *108:334 0.256762
134 *108:337 *108:336 8.99993
135 *108:337 *108:339 3.32638
136 *108:473 *108:472 8.99993
137 *108:462 *674:C 8.99993
138 *108:462 *108:463 4.61998
139 *108:417 *947:C 8.99993
140 *108:161 *108:417 0.256762
141 *108:420 *108:419 8.99993
142 *108:435 *108:444 0.369668
143 *108:438 *108:437 8.99993
144 *108:372 *667:C 8.99993
145 *108:335 *108:334 8.99993
146 *108:335 *108:337 3.32638
147 *108:346 *668:C 8.99993
148 *108:155 *108:346 0.256762
149 *108:460 *108:473 0.369668
150 *108:461 *675:C 8.99993
151 *108:461 *108:462 2.03278
152 *108:418 *108:417 8.99993
153 *108:420 *108:433 0.184755
154 *108:149 *108:433 0.252498
155 *108:436 *108:435 8.99993
156 *108:436 *108:438 3.32638
157 *108:373 *662:C 8.99993
158 *108:372 *108:373 2.03278
159 *108:158 *108:373 0.256762
160 *108:289 *663:C 8.99993
161 *108:156 *108:289 0.256762
162 *108:332 *108:335 3.32638
163 *108:347 *108:346 8.99993
164 *108:459 *108:460 8.99993
165 *108:459 *108:461 1.2936
166 *108:447 *966:C 8.99993
167 *108:173 *108:447 0.256762
168 *108:428 *970:C 8.99993
169 *108:164 *108:428 0.256762
170 *108:418 *108:431 0.369668
171 *108:434 *108:433 8.99993
172 *108:434 *108:436 3.32638
173 *108:344 *658:C 8.99993
174 *108:159 *108:344 0.256762
175 *108:374 *108:373 8.99993
176 *108:290 *108:289 8.99993
177 *108:331 *108:332 8.99993
178 *108:331 *108:347 3.32638
179 *108:457 *955:C 8.99993
180 *108:457 *108:459 3.32638
181 *108:448 *108:447 8.99993
182 *108:429 *108:428 8.99993
183 *108:163 *108:429 0.256762
184 *108:432 *108:431 8.99993
185 *108:432 *108:434 5.35915
186 *108:323 *653:C 8.99993
187 *108:162 *108:323 0.256762
188 *108:345 *108:344 8.99993
189 *108:345 *108:374 5.72882
190 *108:290 *108:315 0.369668
191 *108:315 *108:331 1.66327
192 *108:423 *961:C 8.99993
193 *108:177 *108:423 0.256762
194 *108:458 *108:457 8.99993
195 *108:426 *108:448 0.923932
196 *108:430 *108:429 8.99993
197 *108:430 *108:432 1.2936
198 *108:306 *659:C 8.99993
199 *108:310 *654:C 8.99993
200 *108:324 *108:323 8.99993
201 *108:313 *108:345 4.98965
202 *108:316 *108:315 8.99993
203 *108:424 *108:423 8.99993
204 *108:424 *108:458 4.80473
205 *108:427 *108:426 8.99993
206 *108:427 *108:430 5.35915
207 *108:293 *664:C 8.99993
208 *108:174 *108:293 0.256762
209 *108:306 *108:307 0.554423
210 *108:307 *108:310 1.47835
211 *108:311 *108:324 0.369668
212 *108:314 *108:313 8.99993
213 *108:314 *108:316 1.2936
214 *108:425 *108:424 8.99993
215 *108:425 *108:427 1.2936
216 *108:294 *108:293 8.99993
217 *108:308 *108:307 8.99993
218 *108:166 *108:308 0.256762
219 *108:312 *108:311 8.99993
220 *108:312 *108:314 2.03278
221 *108:422 *108:425 3.32638
222 *108:301 *669:C 8.99993
223 *108:178 *108:301 0.256762
224 *108:294 *108:304 0.184755
225 *108:172 *108:304 0.252498
226 *108:309 *108:308 8.99993
227 *108:309 *108:312 2.77195
228 *108:377 *670:C 8.99993
229 *108:180 *108:377 0.256762
230 *108:421 *108:422 8.99993
231 *108:302 *108:301 8.99993
232 *108:175 *108:302 0.256762
233 *108:305 *108:304 8.99993
234 *108:305 *108:309 3.8808
235 *108:358 *665:C 8.99993
236 *108:181 *108:358 0.256762
237 *108:378 *108:377 8.99993
238 *108:378 *108:421 6.28325
239 *108:264 *604:C 8.99993
240 *108:261 *605:C 8.99993
241 *108:303 *108:302 8.99993
242 *108:303 *108:305 1.2936
243 *108:340 *655:C 8.99993
244 *108:182 *108:340 0.256762
245 *108:359 *108:358 8.99993
246 *108:359 *108:378 4.80473
247 *108:260 *108:264 0.184755
248 *108:260 *108:261 1.2936
249 *108:300 *108:303 3.32638
250 *108:341 *108:340 8.99993
251 *108:341 *108:359 4.80473
252 *108:254 *601:C 8.99993
253 *108:259 *600:C 8.99993
254 *108:259 *108:260 3.32638
255 *108:291 *660:C 8.99993
256 *108:183 *108:291 0.256762
257 *108:299 *108:300 8.99993
258 *108:299 *108:341 4.61998
259 *108 *108:185 0.184755
260 *108:187 *602:C 8.99993
261 *108:184 *108:187 0.256762
262 *108:254 *108:257 0.184755
263 *108:257 *108:259 3.32638
264 *108:292 *108:291 8.99993
265 *108:292 *108:299 0.184755
266 *108:186 *108:185 8.99993
267 *108:197 *627:C 8.99993
268 *108:100 *108:197 0.256762
269 *108:262 *628:C 8.99993
270 *108:99 *108:262 0.256762
271 *108:193 *599:C 8.99993
272 *108:179 *108:193 0.256762
273 *108:188 *108:187 8.99993
274 *108:258 *108:257 8.99993
275 *108:258 *108:292 4.61998
276 *108:186 *108:199 8.31602
277 *108:191 *626:C 8.99993
278 *108:105 *108:191 0.256762
279 *108:255 *624:C 8.99993
280 *108:104 *108:255 0.256762
281 *108:198 *108:197 8.99993
282 *108:93 *108:198 0.0811658
283 *108:263 *108:262 8.99993
284 *108:194 *108:193 8.99993
285 *108:188 *108:201 0.369668
286 *108:201 *108:258 4.61998
287 *108:200 *108:199 8.99993
288 *108:252 *623:C 8.99993
289 *108:109 *108:252 0.256762
290 *108:192 *108:191 8.99993
291 *108:256 *108:255 8.99993
292 *108:198 *108:236 0.184755
293 *108:236 *108:263 4.61998
294 *108:195 *606:C 8.99993
295 *108:168 *108:195 0.256762
296 *108:205 *603:C 8.99993
297 *108:171 *108:205 0.256762
298 *108:194 *108:203 0.184755
299 *108:176 *108:203 0.252498
300 *108:202 *108:201 8.99993
301 *108:200 *108:202 10.3487997
302 *108:250 *621:C 8.99993
303 *108:113 *108:250 0.256762
304 *108:253 *108:252 8.99993
305 *108:192 *108:234 0.369668
306 *108:234 *108:256 4.43522
307 *108:237 *108:236 8.99993
308 *108:244 *607:C 8.99993
309 *108:165 *108:244 0.256762
310 *108:196 *108:195 8.99993
311 *108:167 *108:196 0.0775339
312 *108:206 *108:205 8.99993
313 *108:169 *108:206 0.256762
314 *108:204 *108:203 8.99993
315 *108:202 *108:204 3.32638
316 *108:242 *619:C 8.99993
317 *108:120 *108:242 0.256762
318 *108:251 *108:250 8.99993
319 *108:232 *108:253 0.923932
320 *108:235 *108:234 8.99993
321 *108:235 *108:237 2.03278
322 *108:287 *609:C 8.99993
323 *108:151 *108:287 0.256762
324 *108:238 *598:C 8.99993
325 *108:160 *108:238 0.256762
326 *108:245 *108:244 8.99993
327 *108:196 *108:208 0.184755
328 *108:207 *108:206 8.99993
329 *108:204 *108:207 3.32638
330 *108:243 *108:242 8.99993
331 *108:114 *108:243 0.252498
332 *108:230 *108:251 0.923932
333 *108:233 *108:232 8.99993
334 *108:233 *108:235 1.2936
335 *108:246 *608:C 8.99993
336 *108:152 *108:246 0.256762
337 *108:288 *108:287 8.99993
338 *108:239 *108:238 8.99993
339 *108:157 *108:239 0.252498
340 *108:210 *108:245 0.923932
341 *108:209 *108:208 8.99993
342 *108:207 *108:209 1.2936
343 *108:225 *618:C 8.99993
344 *108:128 *108:225 0.256762
345 *108:228 *108:243 0.184755
346 *108:231 *108:230 8.99993
347 *108:231 *108:233 2.03278
348 *108:189 *610:C 8.99993
349 *108:148 *108:189 0.256762
350 *108:247 *108:246 8.99993
351 *108:247 *108:288 5.91358
352 *108:212 *108:239 0.184755
353 *108:211 *108:210 8.99993
354 *108:209 *108:211 2.03278
355 *108:240 *614:C 8.99993
356 *108:140 *108:240 0.256762
357 *108:222 *615:C 8.99993
358 *108:136 *108:222 0.256762
359 *108:226 *108:225 8.99993
360 *108:126 *108:226 0.256762
361 *108:229 *108:228 8.99993
362 *108:229 *108:231 1.2936
363 *108:190 *108:189 8.99993
364 *108:214 *108:247 0.923932
365 *108:213 *108:212 8.99993
366 *108:211 *108:213 3.32638
367 *108:241 *108:240 8.99993
368 *108:223 *108:222 8.99993
369 *108:133 *108:223 0.256762
370 *108:227 *108:226 8.99993
371 *108:227 *108:229 3.32638
372 *108:190 *108:216 0.369668
373 *108:215 *108:214 8.99993
374 *108:213 *108:215 3.32638
375 *108:137 *108:220 0.0811658
376 *108:220 *108:241 0.184755
377 *108:224 *108:223 8.99993
378 *108:224 *108:227 3.32638
379 *108:217 *108:216 8.99993
380 *108:215 *108:217 1.2936
381 *108:221 *108:220 8.99993
382 *108:221 *108:224 2.03278
383 *108:217 *108:219 2.03278
384 *108:219 *108:221 1.2936
385 *108:271 *611:C 8.99993
386 *108:147 *108:271 0.256762
387 *108:248 *612:C 8.99993
388 *108:143 *108:248 0.256762
389 *108:218 *108:219 8.99993
390 *108:285 *616:C 8.99993
391 *108:142 *108:285 0.256762
392 *108:295 *650:C 8.99993
393 *108:327 *648:C 8.99993
394 *108:131 *108:327 0.256762
395 *108:267 *613:C 8.99993
396 *108:139 *108:267 0.256762
397 *108:272 *108:271 8.99993
398 *108:145 *108:272 0.256762
399 *108:249 *108:248 8.99993
400 *108:218 *108:249 0.923932
401 *108:286 *108:285 8.99993
402 *108:269 *620:C 8.99993
403 *108:132 *108:269 0.256762
404 *108:295 *108:296 1.2936
405 *108:328 *108:327 8.99993
406 *108:268 *108:267 8.99993
407 *108:273 *108:272 8.99993
408 *108:249 *108:274 4.80473
409 *108:274 *108:286 0.369668
410 *108:270 *108:269 8.99993
411 *108:297 *108:296 8.99993
412 *108:297 *108:328 0.923932
413 *108:268 *108:276 0.369668
414 *108:273 *108:275 2.03278
415 *108:275 *108:274 8.99993
416 *108:280 *617:C 8.99993
417 *108:124 *108:280 0.256762
418 *108:270 *108:278 0.369668
419 *108:278 *108:297 3.51113
420 *108:277 *108:276 8.99993
421 *108:275 *108:277 1.2936
422 *108:357 *633:C 8.99993
423 *108:281 *108:280 8.99993
424 *108:122 *108:281 0.256762
425 *108:279 *108:278 8.99993
426 *108:277 *108:279 3.32638
427 *108:355 *108:357 1.2936
428 *108:265 *622:C 8.99993
429 *108:119 *108:265 0.256762
430 *108:282 *108:281 8.99993
431 *108:279 *108:282 3.32638
432 *108:348 *646:C 8.99993
433 *108:117 *108:348 0.256762
434 *108:356 *108:355 8.99993
435 *108:266 *108:265 8.99993
436 *108:282 *108:284 2.03278
437 *108:325 *630:C 8.99993
438 *108:118 *108:325 0.256762
439 *108:349 *108:348 8.99993
440 *108:349 *108:356 0.923932
441 *108:266 *108:283 0.554423
442 *108:283 *108:284 8.99993
443 *108:326 *108:325 8.99993
444 *108:326 *108:349 4.80473
445 *108:283 *108:318 3.69604
446 *108:318 *108:326 0.554423
447 *108:317 *108:318 8.99993
448 *108:298 *631:C 8.99993
449 *108:319 *629:C 8.99993
450 *108:317 *108:319 1.2936
451 *108:322 *625:C 8.99993
452 *108:298 *108:320 0.184755
453 *108:319 *108:320 3.32638
454 *108:320 *108:322 2.03278
455 *108:350 *636:C 8.99993
456 *108:103 *108:350 0.256762
457 *108:321 *108:320 8.99993
458 *108:375 *634:C 8.99993
459 *108:102 *108:375 0.256762
460 *108:351 *108:350 8.99993
461 *108:321 *108:351 5.91358
462 *108:376 *108:375 8.99993
463 *108:351 *108:362 4.06555
464 *108:362 *108:376 0.739177
465 *108:342 *632:C 8.99993
466 *108:98 *108:342 0.256762
467 *108:363 *108:362 8.99993
468 *108:364 *635:C 8.99993
469 *108:97 *108:364 0.256762
470 *108:343 *108:342 8.99993
471 *108:363 *108:366 2.03278
472 *108:365 *108:364 8.99993
473 *108:343 *108:365 5.1744
474 *108:365 *108:366 8.99993
475 *108:92 *108:365 0.256762
*END

*D_NET *109 0.0166322

*CONN
*P *109 I *C 125.79 135.24 *L 0
*I *972:A I *C 99.75 57.75 *L 0.00164 *D INVJIX0
*I *954:B I *C 90.93 77.49 *L 0.00166 *D NO2I1JIX0
*I *952:B I *C 90.51 69.93 *L 0.00166 *D NO2I1JIX0
*I *950:B I *C 89.67 65.31 *L 0.00166 *D NO2I1JIX0
*I *948:B I *C 93.03 57.75 *L 0.00166 *D NO2I1JIX0
*I *552:A I *C 110.67 85.05 *L 0.00323 *D INVJIX1

*CAP
1 *109 0.00115239
2 *972:A 5.15319e-05
3 *954:B 5.28559e-05
4 *952:B 5.28559e-05
5 *950:B 5.28559e-05
6 *948:B 5.28559e-05
7 *552:A 2.57914e-05
8 *109:7 0.000406781
9 *109:8 0.00041111
10 *109:9 0.000473157
11 *109:10 0.000113732
12 *109:11 0.000249538
13 *109:12 0.00031576
14 *109:13 0.000155385
15 *109:14 0.00019383
16 *109:15 0.000366758
17 *109:16 0.000194441
18 *109:17 9.52475e-05
19 *109:18 0.000323068
20 *109:19 0.000292897
21 *109:20 0.000423891
22 *109:21 0.000102555
23 *109:22 5.05135e-05
24 *109:23 5.78461e-05
25 *109:24 0.000104082
26 *109:25 0.000860206
27 *109:26 9.67497e-05
28 *109:27 0.000137792
29 *109:28 0.000549767
30 *109:29 0.000423891
31 *109:30 0.00022591
32 *109:31 0.000473641
33 *109:32 0.00022591
34 *109:33 0.000473641
35 *109:34 0.000117118
36 *109:35 0.000458135
37 *109:36 0.000109785
38 *109:37 0.000876552
39 *109:38 0.000458135
40 *109:39 0.000860868
41 *109:40 0.00166101
42 *109:41 0.00166855
43 *109:42 0.00118279

*RES
1 *109:42 *109 9.24003
2 *109:41 *109:42 0.184839
3 *109:40 *109:41 12.7511997
4 *109:39 *109:40 8.99993
5 *552:A *109:37 0.288739
6 *109:37 *109:39 9.81751
7 *109:38 *109:37 8.99993
8 *109:35 *109:38 2.21768
9 *109:36 *109:35 8.99993
10 *109:34 *109:36 0.554324
11 *109:33 *109:34 0.184839
12 *109:31 *109:33 3.14169
13 *109:31 *109:32 0.184839
14 *109:30 *109:32 1.66317
15 *109:29 *109:30 0.184839
16 *109:20 *109:29 2.95685
17 *109:20 *109:21 0.184839
18 *109:17 *109:21 0.554324
19 *109:16 *109:17 8.99993
20 *109:15 *954:B 8.99993
21 *109:15 *109:16 1.10884
22 *109:14 *109:15 1.10884
23 *109:14 *109:19 0.184839
24 *109:18 *109:19 1.29368
25 *109:13 *109:18 0.369679
26 *109:22 *948:B 8.99993
27 *109:12 *952:B 8.99993
28 *109:12 *109:13 0.924003
29 *109:22 *109:23 0.184839
30 *109:11 *109:12 1.29368
31 *109:23 *109:24 0.184839
32 *109:27 *972:A 0.577477
33 *109:10 *109:11 0.369679
34 *109:24 *109:26 0.369679
35 *109:27 *109:28 0.866216
36 *109:9 *950:B 8.99993
37 *109:9 *109:10 0.369679
38 *109:25 *109:26 8.99993
39 *109:25 *109:28 3.7538
40 *109:8 *109:9 2.77201
41 *109:7 *109:25 2.59884
42 *109:7 *109:8 8.99993
*END

*D_NET *110 0.0633689

*CONN
*P *110 O *C 5.25 0 *L 0.05
*I *772:A I *C 57.75 50.19 *L 0.00164 *D INVJIX0
*I *768:B I *C 74.13 92.61 *L 0.00171 *D NA2JIX0
*I *767:C I *C 61.11 69.93 *L 0.00157 *D AO22JIX0
*I *766:C I *C 85.47 85.05 *L 0.00157 *D AO22JIX0
*I *765:C I *C 108.57 50.19 *L 0.00157 *D AO22JIX0
*I *764:C I *C 59.85 62.37 *L 0.00157 *D AO22JIX0
*I *763:C I *C 82.53 27.51 *L 0.00157 *D AO22JIX0
*I *762:C I *C 72.03 47.25 *L 0.00157 *D AO22JIX0
*I *761:C I *C 50.19 27.51 *L 0.00157 *D AO22JIX0
*I *760:C I *C 79.17 92.61 *L 0.00157 *D AO22JIX0
*I *759:C I *C 57.33 42.63 *L 0.00157 *D AO22JIX0
*I *758:C I *C 52.29 39.69 *L 0.00157 *D AO22JIX0
*I *757:C I *C 53.13 62.37 *L 0.00157 *D AO22JIX0
*I *756:C I *C 77.07 57.75 *L 0.00157 *D AO22JIX0
*I *755:C I *C 71.61 27.51 *L 0.00157 *D AO22JIX0
*I *754:C I *C 53.55 27.51 *L 0.00157 *D AO22JIX0
*I *753:C I *C 57.75 47.25 *L 0.00157 *D AO22JIX0
*I *752:C I *C 107.73 65.31 *L 0.00157 *D AO22JIX0
*I *751:A I *C 77.07 92.61 *L 0.00167 *D ON21JIX0
*I *750:C I *C 61.11 27.51 *L 0.00157 *D AO22JIX0
*I *749:C I *C 49.35 39.69 *L 0.00157 *D AO22JIX0
*I *748:C I *C 53.97 69.93 *L 0.00157 *D AO22JIX0
*I *747:C I *C 73.29 77.49 *L 0.00157 *D AO22JIX0
*I *746:C I *C 109.41 35.07 *L 0.00157 *D AO22JIX0
*I *745:C I *C 107.31 72.87 *L 0.00157 *D AO22JIX0
*I *744:C I *C 79.59 77.49 *L 0.00157 *D AO22JIX0
*I *743:C I *C 51.45 54.81 *L 0.00157 *D AO22JIX0
*I *742:C I *C 97.65 87.99 *L 0.00157 *D AO22JIX0
*I *741:C I *C 106.47 35.07 *L 0.00157 *D AO22JIX0
*I *740:C I *C 103.95 85.05 *L 0.00157 *D AO22JIX0
*I *739:C I *C 94.71 87.99 *L 0.00157 *D AO22JIX0
*I *738:C I *C 108.15 54.81 *L 0.00157 *D AO22JIX0
*I *737:C I *C 107.31 85.05 *L 0.00157 *D AO22JIX0
*I *695:B I *C 69.93 87.99 *L 0.00164 *D AO21JIX0
*I *694:B I *C 71.19 92.61 *L 0.00162 *D ON31JIX0
*I *684:A I *C 73.29 87.99 *L 0.00165 *D AO32JIX0
*I *681:B I *C 56.07 77.49 *L 0.00164 *D AO21JIX0
*I *652:SD I *C 48.09 73.29 *L 0.00147 *D SDFRRSJIX1
*I *650:Q O *C 54.81 77.49 *L 0 *D SDFRRQJIX1

*CAP
1 *110 0.00071731
2 *772:A 5.28572e-05
3 *768:B 5.28572e-05
4 *767:C 5.28572e-05
5 *766:C 5.28572e-05
6 *765:C 5.28572e-05
7 *764:C 5.28572e-05
8 *763:C 5.28572e-05
9 *762:C 5.75073e-05
10 *761:C 5.28572e-05
11 *760:C 5.28572e-05
12 *759:C 5.28572e-05
13 *758:C 5.75073e-05
14 *757:C 8.62609e-05
15 *756:C 5.28572e-05
16 *755:C 5.28572e-05
17 *754:C 5.28572e-05
18 *753:C 5.28572e-05
19 *752:C 5.28572e-05
20 *751:A 8.39359e-05
21 *750:C 5.28572e-05
22 *749:C 5.28572e-05
23 *748:C 5.28572e-05
24 *747:C 5.75073e-05
25 *746:C 5.28572e-05
26 *745:C 5.28572e-05
27 *744:C 5.7419e-05
28 *743:C 5.75073e-05
29 *742:C 5.28572e-05
30 *741:C 5.28572e-05
31 *740:C 5.28572e-05
32 *739:C 5.28572e-05
33 *738:C 5.75073e-05
34 *737:C 5.28572e-05
35 *695:B 5.28572e-05
36 *694:B 5.28572e-05
37 *684:A 5.28572e-05
38 *681:B 2.57811e-05
39 *652:SD 5.28572e-05
40 *650:Q 8.78207e-05
41 *110:46 0.000102536
42 *110:47 0.000740178
43 *110:48 0.00192873
44 *110:49 0.000129641
45 *110:50 0.00192873
46 *110:51 0.000699005
47 *110:52 0.00031476
48 *110:53 0.000112866
49 *110:54 0.00031476
50 *110:55 0.00067028
51 *110:56 6.52475e-05
52 *110:57 0.000670928
53 *110:58 0.000708834
54 *110:59 0.000642145
55 *110:60 0.000637848
56 *110:61 0.000626282
57 *110:62 4.77952e-05
58 *110:63 0.000247187
59 *110:64 0.000120077
60 *110:65 0.000237004
61 *110:66 0.000318144
62 *110:67 0.000240801
63 *110:68 0.000393339
64 *110:69 0.00015969
65 *110:70 0.000157424
66 *110:71 0.000345691
67 *110:72 0.000247187
68 *110:73 0.000119017
69 *110:74 0.000122696
70 *110:75 0.000124697
71 *110:76 0.000124697
72 *110:77 0.000393339
73 *110:78 0.000294688
74 *110:79 0.000330976
75 *110:80 0.00013023
76 *110:81 0.000884093
77 *110:82 6.67484e-05
78 *110:83 0.000699681
79 *110:84 0.000117634
80 *110:85 0.000719488
81 *110:86 0.000808251
82 *110:87 0.000173316
83 *110:88 0.000585285
84 *110:89 8.45539e-05
85 *110:90 0.000266111
86 *110:91 0.000266111
87 *110:92 0.000110394
88 *110:93 5.51234e-05
89 *110:94 4.77952e-05
90 *110:95 0.000110394
91 *110:96 8.32884e-05
92 *110:97 0.000128464
93 *110:98 0.000255222
94 *110:99 0.000135998
95 *110:100 0.000165488
96 *110:101 6.52769e-05
97 *110:102 0.000253721
98 *110:103 0.000316937
99 *110:104 0.000467739
100 *110:105 0.00163663
101 *110:106 0.000506293
102 *110:107 0.000155835
103 *110:108 0.00021914
104 *110:109 0.00021914
105 *110:110 0.000351901
106 *110:111 0.000621279
107 *110:112 0.000324501
108 *110:113 0.000330976
109 *110:114 4.77952e-05
110 *110:115 5.24158e-05
111 *110:116 0.000120077
112 *110:117 0.000287065
113 *110:118 0.000287065
114 *110:119 0.000255222
115 *110:120 0.000632256
116 *110:121 0.000651445
117 *110:122 0.000101064
118 *110:123 0.00102636
119 *110:124 4.57056e-05
120 *110:125 0.00017726
121 *110:126 0.000560092
122 *110:127 0.000353902
123 *110:128 6.66307e-05
124 *110:129 0.000134321
125 *110:130 5.05322e-05
126 *110:131 5.05322e-05
127 *110:132 0.000192888
128 *110:133 0.000164222
129 *110:134 0.000294423
130 *110:135 5.87433e-05
131 *110:136 0.000199598
132 *110:137 0.000379212
133 *110:138 0.000487105
134 *110:139 0.000235856
135 *110:140 6.93678e-05
136 *110:141 0.000106862
137 *110:142 0.000331976
138 *110:143 0.000331976
139 *110:144 0.000191387
140 *110:145 0.000272762
141 *110:146 0.000198921
142 *110:147 0.000464473
143 *110:148 0.000527013
144 *110:149 0.00102454
145 *110:150 9.15878e-05
146 *110:151 0.000120135
147 *110:152 0.000137029
148 *110:153 0.000337686
149 *110:154 0.000246363
150 *110:155 8.26704e-05
151 *110:156 7.53422e-05
152 *110:157 0.000169579
153 *110:158 4.59116e-05
154 *110:159 0.000143739
155 *110:160 0.000244332
156 *110:161 0.000244332
157 *110:162 0.000313847
158 *110:163 0.000313847
159 *110:164 0.000101594
160 *110:165 0.000401786
161 *110:166 0.000119988
162 *110:167 0.000354255
163 *110:168 0.000329298
164 *110:169 0.000169579
165 *110:170 0.000329298
166 *110:171 0.000358434
167 *110:172 0.000112454
168 *110:173 0.000344779
169 *110:174 0.00123229
170 *110:175 0.00117704
171 *110:176 0.000439692
172 *110:177 0.00035917
173 *110:178 0.000297307
174 *110:179 0.000290067
175 *110:180 0.000216079
176 *110:181 0.000112748
177 *110:182 0.000467386
178 *110:183 0.000119988
179 *110:184 0.000109011
180 *110:185 0.000401786
181 *110:186 4.59116e-05
182 *110:187 4.59116e-05
183 *110:188 0.000101476
184 *110:189 7.56659e-05
185 *110:190 0.000321293
186 *110:191 0.000241948
187 *110:192 0.000241948
188 *110:193 0.000669191
189 *110:194 8.26115e-05
190 *110:195 0.000806338
191 *110:196 8.26115e-05
192 *110:197 0.000151008
193 *110:198 0.000414411
194 *110:199 0.000209575
195 *110:200 0.000212577
196 *110:201 7.27523e-05
197 *110:202 4.57056e-05
198 *110:203 0.000649355
199 *110:204 0.000141119
200 *110:205 0.00031526
201 *110:206 0.000148654
202 *110:207 0.000914171
203 *110:208 0.000906637
204 *110:209 0.000170432
205 *110:210 6.01266e-05
206 *110:211 0.000702595
207 *110:212 0.000695267
208 *110:213 0.000249159
209 *110:214 6.66307e-05
210 *110:215 0.00025996
211 *110:216 0.000155835
212 *110:217 0.00010545
213 *110:218 0.000237887
214 *110:219 0.000162633
215 *110:220 8.66435e-05
216 *110:221 0.00037053
217 *110:222 0.00037053
218 *110:223 0.000310168
219 *110:224 0.000170432
220 *110:225 5.94497e-05
221 *110:226 0.000690028
222 *110:227 0.00043154
223 *110:228 0.000224467
224 *110:229 0.000284829
225 *110:230 4.57056e-05
226 *110:231 0.00031526
227 *110:232 0.000438544
228 *110:233 0.000408378

*RES
1 *110 *110:47 5.72868
2 *110:46 *110:47 8.99987
3 *110:170 *756:C 8.99987
4 *110:46 *110:49 0.577623
5 *110:186 *763:C 8.99987
6 *110:44 *110:186 0.0810347
7 *110:168 *110:170 0.923863
8 *110:48 *110:49 0.577623
9 *110:186 *110:187 0.184839
10 *110:169 *110:168 8.99987
11 *110:48 *110:50 21.9449997
12 *110:188 *110:187 8.99987
13 *110:157 *110:169 1.29354
14 *110:50 *110:51 0.577623
15 *110:184 *110:188 0.554518
16 *110:156 *110:157 8.99987
17 *110:51 *110:55 7.79641
18 *110:130 *755:C 8.99987
19 *110:45 *110:130 0.0810347
20 *110:184 *110:185 0.184839
21 *110:155 *110:156 0.554518
22 *110:230 *746:C 8.99987
23 *110:43 *110:230 0.256833
24 *110:55 *110:56 0.288644
25 *110:130 *110:131 0.184839
26 *110:165 *110:185 2.58708
27 *110:143 *110:155 0.184839
28 *110:231 *110:230 8.99987
29 *110:117 *750:C 8.99987
30 *110:57 *110:56 8.99987
31 *110:75 *754:C 8.99987
32 *110:132 *110:131 8.99987
33 *110:164 *110:165 0.184839
34 *110:133 *762:C 0.577623
35 *110:142 *110:143 2.21774
36 *110:205 *110:231 1.29354
37 *110:117 *110:118 1.29354
38 *110:57 *110:58 4.98966
39 *110:75 *110:76 0.554518
40 *110:132 *110:145 1.1087
41 *110:145 *110:164 0.554518
42 *110:133 *110:152 1.44389
43 *110:142 *110:154 0.184839
44 *110:204 *741:C 8.99987
45 *110:204 *110:205 8.99987
46 *110:119 *110:118 8.99987
47 *110:58 *110:65 0.369679
48 *110:77 *110:76 8.99987
49 *110:144 *110:145 8.99987
50 *110:153 *110:152 8.99987
51 *110:153 *110:154 1.47838
52 *110:204 *110:206 0.739358
53 *110:98 *110:119 1.66322
54 *110:66 *761:C 8.99987
55 *110:65 *110:66 1.1087
56 *110:68 *110:77 1.47838
57 *110:144 *110:146 1.1087
58 *110:151 *110:153 0.554518
59 *110:206 *110:207 0.184839
60 *110:97 *110:98 8.99987
61 *110:66 *110:67 0.554518
62 *110:67 *110:68 8.99987
63 *110:146 *110:160 0.184839
64 *110:151 *110:163 0.184839
65 *110:207 *110:208 5.91352
66 *110:97 *110:99 0.923863
67 *110:67 *110:69 0.923863
68 *110:160 *110:161 1.47838
69 *110:162 *110:163 2.0329
70 *110:209 *110:208 8.99987
71 *110:71 *758:C 0.577623
72 *110:99 *110:108 0.184839
73 *110:59 *110:69 0.369679
74 *110:62 *749:C 8.99987
75 *110:147 *110:161 0.184839
76 *110:150 *110:162 0.184839
77 *110:220 *738:C 0.577623
78 *110:209 *110:224 0.739358
79 *110:71 *110:103 3.46507
80 *110:108 *110:109 1.66322
81 *110:59 *110:60 3.32644
82 *110:60 *110:62 0.184839
83 *110:147 *110:148 2.0329
84 *110:148 *110:150 0.554518
85 *110:220 *110:225 0.288644
86 *110:223 *765:C 8.99987
87 *110:223 *110:224 8.99987
88 *110:101 *110:103 0.288644
89 *110:100 *110:109 0.184839
90 *110:61 *110:60 8.99987
91 *110:149 *110:148 8.99987
92 *110:226 *110:225 8.99987
93 *110:223 *110:226 1.29354
94 *110:102 *110:101 8.99987
95 *110:100 *110:102 0.554518
96 *110:61 *110:105 3.51128
97 *110:105 *110:149 7.3919
98 *110:226 *110:227 1.47838
99 *110:102 *110:104 0.369679
100 *110:104 *110:105 8.99987
101 *110:227 *110:232 0.369679
102 *110:106 *759:C 8.99987
103 *110:104 *110:106 1.66322
104 *110:232 *110:233 2.77192
105 *110:106 *110:107 0.554518
106 *110:228 *110:233 0.184839
107 *110:107 *110:110 0.184839
108 *110:214 *752:C 8.99987
109 *110:228 *110:229 1.29354
110 *110:111 *753:C 8.99987
111 *110:110 *110:111 1.47838
112 *110:114 *772:A 8.99987
113 *110:214 *110:215 0.184839
114 *110:215 *110:229 0.554518
115 *110:111 *110:112 1.1087
116 *110:112 *110:114 0.184839
117 *110:96 *681:B 0.288644
118 *110:215 *110:216 0.554518
119 *110:113 *110:112 8.99987
120 *110:95 *110:96 0.577623
121 *110:216 *110:221 0.184839
122 *110:70 *743:C 0.577623
123 *110:79 *110:113 1.84806
124 *110:92 *110:95 0.577623
125 *110:221 *110:222 2.0329
126 *110:54 *652:SD 8.99987
127 *110:74 *757:C 0.866268
128 *110:70 *110:80 1.44389
129 *110:78 *110:79 8.99987
130 *110:92 *650:Q 0.577623
131 *110:217 *110:222 0.184839
132 *110:210 *745:C 8.99987
133 *110:52 *110:54 0.923863
134 *110:74 *110:82 0.288644
135 *110:81 *110:80 8.99987
136 *110:78 *110:81 1.66322
137 *110:94 *650:Q 8.99987
138 *110:217 *110:218 0.554518
139 *110:210 *110:218 0.184839
140 *110:53 *110:52 8.99987
141 *110:83 *110:82 8.99987
142 *110:81 *110:83 3.1416
143 *110:93 *110:94 0.184839
144 *110:218 *110:219 0.923863
145 *110:115 *764:C 8.99987
146 *110:53 *110:64 0.554518
147 *110:83 *110:84 0.554518
148 *110:91 *110:93 0.184839
149 *110:211 *110:219 0.184839
150 *110:115 *110:116 0.184839
151 *110:63 *110:64 0.184839
152 *110:84 *110:85 0.184839
153 *110:90 *110:91 2.0329
154 *110:212 *737:C 8.99987
155 *110:211 *110:212 4.2503
156 *110:42 *110:212 0.256833
157 *110:116 *110:120 0.554518
158 *110:63 *110:72 1.47838
159 *110:86 *748:C 8.99987
160 *110:85 *110:86 3.51128
161 *110:89 *110:90 0.184839
162 *110:202 *740:C 8.99987
163 *110:41 *110:202 0.0984471
164 *110:213 *110:212 8.99987
165 *110:121 *767:C 8.99987
166 *110:120 *110:121 3.1416
167 *110:72 *110:73 0.184839
168 *110:86 *110:87 0.554518
169 *110:87 *110:89 0.369679
170 *110:203 *110:202 8.99987
171 *110:203 *110:213 1.47838
172 *110:121 *110:122 0.554518
173 *110:73 *110:88 0.554518
174 *110:88 *110:87 8.99987
175 *110:198 *110:203 2.77192
176 *110:123 *110:122 8.99987
177 *110:88 *110:123 3.1416
178 *110:197 *110:198 8.99987
179 *110:201 *742:C 8.99987
180 *110:123 *110:126 4.06546
181 *110:196 *739:C 8.99987
182 *110:197 *110:199 0.923863
183 *110:199 *110:201 0.369679
184 *110:126 *110:127 0.184839
185 *110:191 *766:C 8.99987
186 *110:194 *110:196 0.369679
187 *110:200 *110:199 8.99987
188 *110:127 *110:167 2.40224
189 *110:179 *760:C 8.99987
190 *110:191 *110:192 0.923863
191 *110:195 *110:194 8.99987
192 *110:195 *110:200 1.29354
193 *110:166 *110:167 0.184839
194 *110:178 *110:179 1.1087
195 *110:193 *110:192 8.99987
196 *110:193 *110:195 4.06546
197 *110:139 *747:C 0.577623
198 *110:180 *744:C 0.577623
199 *110:166 *110:172 0.554518
200 *110:128 *694:B 8.99987
201 *110:158 *768:B 8.99987
202 *110:178 *110:183 0.184839
203 *110:189 *110:193 0.369679
204 *110:139 *110:173 2.5988
205 *110:173 *110:180 1.73254
206 *110:171 *110:172 8.99987
207 *110:140 *684:A 8.99987
208 *110:128 *110:129 0.184839
209 *110:158 *110:159 0.184839
210 *110:181 *110:183 0.923863
211 *110:189 *110:190 0.184839
212 *110:174 *110:173 8.99987
213 *110:171 *110:174 2.21774
214 *110:177 *751:A 8.99987
215 *110:140 *110:141 0.184839
216 *110:129 *110:138 0.554518
217 *110:138 *110:159 0.739358
218 *110:182 *110:181 8.99987
219 *110:182 *110:190 2.21774
220 *110:174 *110:175 4.98966
221 *110:175 *110:177 2.0329
222 *110:137 *110:141 0.369679
223 *110:137 *110:138 1.84806
224 *110:176 *110:182 1.1087
225 *110:176 *110:175 8.99987
226 *110:135 *110:137 0.369679
227 *110:134 *110:176 2.0329
228 *110:136 *110:135 8.99987
229 *110:134 *110:136 0.184839
230 *110:125 *110:136 1.1087
231 *110:124 *695:B 8.99987
232 *110:124 *110:125 8.99987
233 *110:40 *110:124 0.256833
*END

*D_NET *111 0.00519503

*CONN
*P *111 O *C 136.08 4.83 *L 0.05
*I *956:Q O *C 111.93 23.73 *L 0 *D NA2JIX1

*CAP
1 *111 0.000230486
2 *956:Q 0.00134862
3 *111:2 0.000769711
4 *111:3 0.000708923
5 *111:4 0.000222112
6 *111:5 0.00137894
7 *111:6 0.000184195
8 *111:7 0.000352021

*RES
1 *111 *111:7 1.84805
2 *111:2 *111:7 0.739314
3 *111:2 *111:3 5.1745
4 *111:3 *111:4 0.369657
5 *111:4 *111:6 1.29368
6 *111:5 *111:6 8.99997
7 *956:Q *111:5 15.30375
*END

*D_NET *112 0.0552837

*CONN
*P *112 I *C 0 127.89 *L 0
*I *970:SE I *C 91.35 47.25 *L 0.0028 *D SDFRRQJIX1
*I *966:SE I *C 93.45 35.07 *L 0.0028 *D SDFRRQJIX1
*I *961:SE I *C 91.35 32.13 *L 0.0028 *D SDFRRQJIX1
*I *955:SE I *C 102.27 32.13 *L 0.0028 *D SDFRRQJIX1
*I *953:SE I *C 92.19 77.49 *L 0.00281 *D SDFRQJIX1
*I *951:SE I *C 92.61 69.93 *L 0.00281 *D SDFRQJIX1
*I *949:SE I *C 91.35 62.37 *L 0.00281 *D SDFRQJIX1
*I *947:SE I *C 90.93 50.19 *L 0.00281 *D SDFRQJIX1
*I *680:SE I *C 103.11 39.69 *L 0.0028 *D SDFRRQJIX1
*I *679:SE I *C 101.85 57.75 *L 0.0028 *D SDFRRQJIX1
*I *678:SE I *C 101.01 62.37 *L 0.0028 *D SDFRRSJIX1
*I *677:SE I *C 101.01 87.99 *L 0.0028 *D SDFRRSJIX1
*I *676:SE I *C 88.83 95.55 *L 0.0028 *D SDFRRSJIX1
*I *675:SE I *C 102.27 42.63 *L 0.0028 *D SDFRRQJIX1
*I *674:SE I *C 102.27 47.25 *L 0.0028 *D SDFRRQJIX1
*I *673:SE I *C 101.85 77.49 *L 0.0028 *D SDFRRSJIX1
*I *672:SE I *C 101.01 80.43 *L 0.0028 *D SDFRRSJIX1
*I *671:SE I *C 92.61 92.61 *L 0.0028 *D SDFRRSJIX1
*I *666:SE I *C 80.43 92.61 *L 0.0028 *D SDFRRSJIX1
*I *661:SE I *C 78.75 87.99 *L 0.0028 *D SDFRRSJIX1
*I *645:SE I *C 100.17 107.73 *L 0.0028 *D SDFRRQJIX1
*I *644:SE I *C 102.27 100.17 *L 0.0028 *D SDFRRQJIX1
*I *643:SE I *C 101.01 95.55 *L 0.0028 *D SDFRRQJIX1
*I *642:SE I *C 91.35 100.17 *L 0.0028 *D SDFRRQJIX1
*I *641:SE I *C 92.19 103.11 *L 0.0028 *D SDFRRQJIX1
*I *640:SE I *C 89.25 107.73 *L 0.0028 *D SDFRRQJIX1
*I *639:SE I *C 77.91 95.55 *L 0.0028 *D SDFRRQJIX1
*I *638:SE I *C 79.17 100.17 *L 0.0028 *D SDFRRQJIX1
*I *637:SE I *C 78.33 107.73 *L 0.0028 *D SDFRRQJIX1
*I *636:SE I *C 58.17 103.11 *L 0.0028 *D SDFRRQJIX1
*I *635:SE I *C 67.41 107.73 *L 0.0028 *D SDFRRQJIX1
*I *634:SE I *C 69.09 103.11 *L 0.0028 *D SDFRRQJIX1
*I *633:SE I *C 59.01 95.55 *L 0.0028 *D SDFRRQJIX1
*I *632:SE I *C 55.65 107.73 *L 0.0028 *D SDFRRQJIX1
*I *631:SE I *C 44.31 103.11 *L 0.0028 *D SDFRRQJIX1
*I *630:SE I *C 45.99 92.61 *L 0.0028 *D SDFRRQJIX1
*I *629:SE I *C 44.73 95.55 *L 0.0028 *D SDFRRQJIX1
*I *628:SE I *C 33.81 107.73 *L 0.0028 *D SDFRRQJIX1
*I *627:SE I *C 22.89 107.73 *L 0.0028 *D SDFRRQJIX1
*I *625:SE I *C 44.73 107.73 *L 0.0028 *D SDFRRQJIX1
*I *624:SE I *C 33.39 103.11 *L 0.0028 *D SDFRRQJIX1
*I *549:A I *C 47.67 87.99 *L 0.00156 *D BUJIX1

*CAP
1 *112 2.49296e-05
2 *970:SE 5.28531e-05
3 *966:SE 7.73351e-05
4 *961:SE 5.28531e-05
5 *955:SE 5.28531e-05
6 *953:SE 5.28531e-05
7 *951:SE 5.28531e-05
8 *949:SE 5.28531e-05
9 *947:SE 5.28531e-05
10 *680:SE 5.15381e-05
11 *679:SE 5.28531e-05
12 *678:SE 5.28531e-05
13 *677:SE 5.28531e-05
14 *676:SE 5.28531e-05
15 *675:SE 5.28531e-05
16 *674:SE 5.28531e-05
17 *673:SE 5.74137e-05
18 *672:SE 5.28531e-05
19 *671:SE 5.28531e-05
20 *666:SE 5.74137e-05
21 *661:SE 5.18178e-05
22 *645:SE 5.28531e-05
23 *644:SE 5.28531e-05
24 *643:SE 5.28531e-05
25 *642:SE 5.15381e-05
26 *641:SE 5.28531e-05
27 *640:SE 5.28531e-05
28 *639:SE 5.28531e-05
29 *638:SE 2.5769e-05
30 *637:SE 5.28531e-05
31 *636:SE 5.28531e-05
32 *635:SE 5.28531e-05
33 *634:SE 5.28531e-05
34 *633:SE 5.15381e-05
35 *632:SE 5.28531e-05
36 *631:SE 5.28531e-05
37 *630:SE 5.28531e-05
38 *629:SE 5.28531e-05
39 *628:SE 5.28531e-05
40 *627:SE 5.28531e-05
41 *625:SE 5.28531e-05
42 *624:SE 5.28531e-05
43 *549:A 5.28531e-05
44 *112:47 0.00133705
45 *112:48 4.77888e-05
46 *112:49 7.65516e-05
47 *112:50 0.000752562
48 *112:51 0.00124878
49 *112:52 0.00133705
50 *112:53 0.00118644
51 *112:54 0.000103384
52 *112:55 0.000110575
53 *112:56 0.000187322
54 *112:57 0.000216449
55 *112:58 0.000820748
56 *112:59 5.05308e-05
57 *112:60 8.98978e-05
58 *112:61 0.00107586
59 *112:62 0.000205313
60 *112:63 0.000562218
61 *112:64 0.000385752
62 *112:65 0.000162001
63 *112:66 0.000499069
64 *112:67 0.000426238
65 *112:68 5.78334e-05
66 *112:69 5.05308e-05
67 *112:70 0.00183363
68 *112:71 0.000187574
69 *112:72 0.00031253
70 *112:73 0.00030464
71 *112:74 0.000156041
72 *112:75 0.000253885
73 *112:76 4.57183e-05
74 *112:77 0.000935547
75 *112:78 8.18397e-05
76 *112:79 0.000565743
77 *112:80 0.000731354
78 *112:81 0.000257606
79 *112:82 0.000158503
80 *112:83 9.19963e-05
81 *112:84 0.000170255
82 *112:85 0.000396888
83 *112:86 0.000166673
84 *112:87 0.000396888
85 *112:88 0.000110295
86 *112:89 0.000265944
87 *112:90 0.00016561
88 *112:91 0.000265944
89 *112:92 0.000544563
90 *112:93 0.000499992
91 *112:94 0.000684012
92 *112:95 0.000270029
93 *112:96 0.000232537
94 *112:97 0.00026102
95 *112:98 0.000291126
96 *112:99 8.21195e-05
97 *112:100 0.000421174
98 *112:101 0.000244848
99 *112:102 0.000593527
100 *112:103 0.0003261
101 *112:104 0.000198878
102 *112:105 0.000750547
103 *112:106 7.23267e-05
104 *112:107 9.1045e-05
105 *112:108 5.31329e-05
106 *112:109 0.000292133
107 *112:110 0.000332619
108 *112:111 0.000637874
109 *112:112 9.19963e-05
110 *112:113 9.94388e-05
111 *112:114 8.31828e-05
112 *112:115 0.00027196
113 *112:116 0.000183293
114 *112:117 0.000216896
115 *112:118 0.00102925
116 *112:119 0.000169275
117 *112:120 0.000395657
118 *112:121 0.000526852
119 *112:122 0.000349351
120 *112:123 0.000186203
121 *112:124 6.6563e-05
122 *112:125 5.93163e-05
123 *112:126 0.000225066
124 *112:127 0.000137659
125 *112:128 0.000228927
126 *112:129 0.000467844
127 *112:130 0.000267735
128 *112:131 4.57183e-05
129 *112:132 7.85102e-05
130 *112:133 0.000106629
131 *112:134 0.000113932
132 *112:135 0.00046222
133 *112:136 0.000781017
134 *112:137 0.000656537
135 *112:138 0.000654998
136 *112:139 0.000396524
137 *112:140 0.00032263
138 *112:141 0.000324477
139 *112:142 0.000107637
140 *112:143 0.00032263
141 *112:144 0.000374169
142 *112:145 0.000675115
143 *112:146 0.000322463
144 *112:147 0.000572403
145 *112:148 6.42127e-05
146 *112:149 6.42127e-05
147 *112:150 0.000980426
148 *112:151 0.000303157
149 *112:152 0.000380968
150 *112:153 0.000167009
151 *112:154 0.000506147
152 *112:155 0.000506147
153 *112:156 0.000292888
154 *112:157 0.000298065
155 *112:158 0.000487289
156 *112:159 0.000285642
157 *112:160 0.000434576
158 *112:161 0.000645261
159 *112:162 0.000200472
160 *112:163 8.33786e-05
161 *112:164 4.58862e-05
162 *112:165 0.00010551
163 *112:166 0.000245575
164 *112:167 0.000328366
165 *112:168 0.000626711
166 *112:169 0.000572403
167 *112:170 0.00102701
168 *112:171 0.000788348
169 *112:172 0.000452483
170 *112:173 0.000140009
171 *112:174 0.00031723
172 *112:175 0.00031723
173 *112:176 0.000173304
174 *112:177 0.000173304
175 *112:178 0.000118549
176 *112:179 0.000317594
177 *112:180 0.000656537
178 *112:181 0.000258054
179 *112:182 0.000126411
180 *112:183 7.01444e-05
181 *112:184 0.000171849
182 *112:185 0.000449377
183 *112:186 0.000153831
184 *112:187 0.000114016
185 *112:188 8.18397e-05
186 *112:189 0.000299212
187 *112:190 0.000469215
188 *112:191 0.000454637
189 *112:192 0.000229599
190 *112:193 0.000132147
191 *112:194 6.47443e-05
192 *112:195 0.000379121
193 *112:196 0.000378701

*RES
1 *112:142 *966:SE 0.866347
2 *112:143 *112:142 8.99997
3 *112:131 *961:SE 8.99997
4 *112:46 *112:131 0.0439011
5 *112:140 *112:143 1.29368
6 *112:132 *112:131 8.99997
7 *112:141 *112:140 8.99997
8 *112:132 *112:141 0.369657
9 *112:141 *112:157 1.84805
10 *112:157 *112:158 0.369657
11 *112:183 *955:SE 8.99997
12 *112:158 *112:185 2.58713
13 *112:183 *112:184 0.369657
14 *112:184 *112:185 8.99997
15 *112:184 *112:186 0.554369
16 *112:186 *112:195 0.369657
17 *112:195 *112:196 2.03276
18 *112:188 *680:SE 0.577487
19 *112:187 *112:196 0.369657
20 *112:189 *112:188 8.99997
21 *112:187 *112:189 0.369657
22 *112:190 *675:SE 8.99997
23 *112:189 *112:190 1.29368
24 *112:191 *674:SE 8.99997
25 *112:190 *112:191 1.84805
26 *112:191 *112:192 1.10874
27 *112:176 *112:192 0.184712
28 *112:176 *112:177 1.10874
29 *112:133 *970:SE 8.99997
30 *112:174 *112:177 0.184712
31 *112:164 *678:SE 8.99997
32 *112:133 *112:134 0.369657
33 *112:174 *112:175 2.03276
34 *112:163 *112:164 0.184712
35 *112:128 *112:134 0.184712
36 *112:175 *112:178 0.184712
37 *112:163 *112:181 0.369657
38 *112:129 *947:SE 8.99997
39 *112:128 *112:129 0.924026
40 *112:179 *679:SE 8.99997
41 *112:178 *112:179 0.554369
42 *112:45 *112:179 0.256868
43 *112:179 *112:181 1.66311
44 *112:129 *112:130 1.47839
45 *112:180 *112:179 8.99997
46 *112:130 *112:135 0.184712
47 *112:137 *112:180 4.61989
48 *112:135 *112:136 1.84805
49 *112:136 *112:137 8.99997
50 *112:138 *949:SE 8.99997
51 *112:136 *112:138 1.84805
52 *112:138 *112:139 2.03276
53 *112:139 *112:151 0.554369
54 *112:152 *951:SE 8.99997
55 *112:151 *112:152 1.47839
56 *112:152 *112:153 0.924026
57 *112:144 *112:153 0.184712
58 *673:SE *112:182 0.577487
59 *112:145 *953:SE 8.99997
60 *112:144 *112:145 2.21771
61 *112:165 *112:182 0.577487
62 *112:145 *112:146 2.03276
63 *112:166 *112:165 8.99997
64 *112:147 *112:146 8.99997
65 *112:167 *672:SE 8.99997
66 *112:166 *112:167 1.10874
67 *112:147 *112:169 3.88081
68 *112:167 *112:168 0.369657
69 *112:168 *112:169 8.99997
70 *112:170 *677:SE 8.99997
71 *112:168 *112:170 2.77208
72 *112:194 *644:SE 8.99997
73 *112:171 *643:SE 8.99997
74 *112:170 *112:171 3.32645
75 *112:193 *112:194 0.184712
76 *112:171 *112:172 1.66311
77 *112:172 *112:193 0.554369
78 *112:172 *112:173 0.739314
79 *112:159 *112:173 0.369657
80 *112:162 *645:SE 8.99997
81 *112:148 *641:SE 8.99997
82 *112:159 *112:160 1.47839
83 *112:160 *112:162 1.29368
84 *112:148 *112:149 0.369657
85 *112:161 *112:160 8.99997
86 *112:125 *640:SE 8.99997
87 *112:127 *642:SE 0.577487
88 *112:150 *112:149 8.99997
89 *112:150 *112:161 3.51116
90 *112:124 *112:125 0.369657
91 *112:126 *112:127 0.866347
92 *112:122 *112:150 1.47839
93 *112:123 *112:124 0.184712
94 *112:119 *112:126 1.15497
95 *112:121 *112:122 8.99997
96 *112:121 *112:123 0.924026
97 *112:154 *671:SE 8.99997
98 *666:SE *112:115 0.577487
99 *112:99 *661:SE 0.577487
100 *112:116 *676:SE 8.99997
101 *112:120 *112:119 8.99997
102 *112:120 *112:121 2.58713
103 *112:154 *112:155 2.40242
104 *112:101 *112:115 1.73246
105 *112:100 *112:99 8.99997
106 *112:116 *112:117 0.924026
107 *112:117 *112:120 0.184712
108 *112:156 *112:155 8.99997
109 *112:114 *638:SE 0.28886
110 *112:102 *112:101 8.99997
111 *112:100 *112:102 2.21771
112 *112:118 *112:117 8.99997
113 *112:118 *112:156 1.66311
114 *112:113 *112:114 0.577487
115 *112:103 *639:SE 8.99997
116 *112:102 *112:103 1.10874
117 *112:105 *112:118 4.80484
118 *112:106 *112:113 0.577487
119 *112:103 *112:104 0.924026
120 *112:104 *112:105 8.99997
121 *112:107 *112:106 8.99997
122 *112:104 *112:107 0.369657
123 *112:107 *112:108 0.184712
124 *112:97 *112:108 0.184712
125 *112:74 *549:A 8.99997
126 *112:96 *634:SE 8.99997
127 *112:97 *112:98 1.29368
128 *112:74 *112:75 1.10874
129 *112:95 *112:96 0.739314
130 *112:98 *112:109 0.369657
131 *112:112 *637:SE 8.99997
132 *112:71 *112:75 0.739314
133 *112:92 *112:95 0.369657
134 *112:109 *112:110 1.66311
135 *112:110 *112:112 0.554369
136 *112:72 *630:SE 8.99997
137 *112:71 *112:72 0.739314
138 *112:48 *112 0.184712
139 *112:91 *635:SE 8.99997
140 *112:92 *112:93 2.03276
141 *112:111 *112:110 8.99997
142 *112:72 *112:73 0.924026
143 *112:47 *112:48 8.99997
144 *112:89 *112:91 0.739314
145 *112:94 *112:93 8.99997
146 *112:94 *112:111 4.43518
147 *112:65 *112:73 0.554369
148 *112:47 *112:52 15.30375
149 *112:90 *112:89 8.99997
150 *112:90 *112:94 0.369657
151 *112:66 *629:SE 8.99997
152 *112:65 *112:66 0.554369
153 *112:54 *624:SE 8.99997
154 *112:53 *112:52 8.99997
155 *112:88 *112:90 0.554369
156 *112:66 *112:67 2.58713
157 *112:54 *112:55 0.554369
158 *112:51 *627:SE 8.99997
159 *112:51 *112:53 8.68565
160 *112:87 *112:88 0.184712
161 *112:62 *112:67 0.184712
162 *112:55 *112:56 0.184712
163 *112:59 *628:SE 8.99997
164 *112:49 *112:51 0.369657
165 *112:78 *633:SE 0.577487
166 *112:85 *112:87 2.58713
167 *112:63 *631:SE 8.99997
168 *112:62 *112:63 0.739314
169 *112:56 *112:57 0.924026
170 *112:44 *112:57 0.0812638
171 *112:57 *112:59 0.184712
172 *112:50 *112:49 8.99997
173 *112:79 *112:78 8.99997
174 *112:85 *112:86 0.184712
175 *112:63 *112:64 1.47839
176 *112:58 *112:57 8.99997
177 *112:50 *112:58 4.80484
178 *112:80 *636:SE 8.99997
179 *112:79 *112:80 3.32645
180 *112:82 *112:86 0.924026
181 *112:64 *112:68 0.184712
182 *112:58 *112:60 0.369657
183 *112:80 *112:81 1.10874
184 *112:81 *112:82 8.99997
185 *112:69 *625:SE 8.99997
186 *112:68 *112:69 0.184712
187 *112:60 *112:61 0.184712
188 *112:81 *112:83 0.554369
189 *112:70 *112:69 8.99997
190 *112:61 *112:70 4.43518
191 *112:84 *112:83 8.99997
192 *112:70 *112:77 4.80484
193 *112:77 *112:84 1.10874
194 *112:76 *632:SE 8.99997
195 *112:76 *112:77 8.99997
196 *112:43 *112:76 0.256868
*END

*D_NET *113 0.00550119

*CONN
*P *113 I *C 0 122.85 *L 0
*I *627:SD I *C 24.57 107.31 *L 0.00147 *D SDFRRQJIX1

*CAP
1 *113 0.000249439
2 *627:SD 5.28568e-05
3 *113:2 0.00147403
4 *113:3 0.000272291
5 *113:4 0.000442558
6 *113:5 0.000442895
7 *113:6 0.00042796
8 *113:7 0.000435158
9 *113:8 0.000118759
10 *113:9 0.00147403
11 *113:10 0.000111247

*RES
1 *113:6 *627:SD 9.00009
2 *113:6 *113:7 1.6631
3 *113:4 *113:7 0.18476
4 *113:4 *113:5 2.77191
5 *113:5 *113:8 0.18476
6 *113:8 *113:10 0.554281
7 *113:9 *113:10 9.00009
8 *113:3 *113 1.84811
9 *113:2 *113:9 16.7474995
10 *113:2 *113:3 9.00009
*END

*D_NET *114 0.0312002

*CONN
*P *114 O *C 0 132.93 *L 0
*P *547 O *C 136.08 9.87 *L 0.05
*I *955:Q O *C 112.77 32.13 *L 0 *D SDFRRQJIX1

*CAP
1 *114 0.000253534
2 *547 4.56801e-05
3 *955:Q 5.28348e-05
4 *114:3 0.000375042
5 *114:4 9.772e-05
6 *114:5 0.00355045
7 *114:6 0.000135573
8 *114:7 0.000869696
9 *114:8 0.00093048
10 *114:9 0.00208814
11 *114:10 0.00400756
12 *114:11 0.00355045
13 *114:12 0.00400756
14 *114:13 0.00209566
15 *114:14 0.00039406
16 *114:15 0.000720609
17 *114:16 0.00039406
18 *114:17 0.000315052
19 *114:18 0.000307714
20 *114:19 0.000713087
21 *114:20 0.000801879
22 *114:21 0.000801879
23 *114:22 0.000294872
24 *114:23 0.000756749
25 *114:24 0.000490924
26 *114:25 0.00128968
27 *114:26 5.32629e-05
28 *114:27 0.00025812
29 *114:28 0.00025812
30 *114:29 0.00128968

*RES
1 *114:29 *547 8.99998
2 *114:25 *114:29 15.3038
3 *114:26 *114:25 8.99998
4 *114:20 *114:26 0.184896
5 *114:20 *114:21 6.09829
6 *114:21 *114:27 0.184896
7 *114:27 *114:28 1.66313
8 *114:22 *114:28 0.184896
9 *114:22 *114:23 2.03292
10 *114:23 *955:Q 8.99998
11 *114:23 *114:24 3.69605
12 *114:17 *114:24 0.184896
13 *114:17 *114:18 1.66313
14 *114:19 *114:18 8.99998
15 *114:15 *114:19 4.98938
16 *114:15 *114:16 0.184896
17 *114:14 *114:16 2.21781
18 *114:13 *114:14 0.184896
19 *114:9 *114:13 14.4144
20 *114:10 *114:9 8.99998
21 *114:10 *114:12 30.6767998
22 *114:11 *114:12 8.99998
23 *114:5 *114:11 27.1657
24 *114:4 *114:5 8.99998
25 *114:4 *114:6 0.55422
26 *114:6 *114:7 0.369792
27 *114:7 *114:8 5.72896
28 *114:3 *114 2.03292
29 *114:3 *114:8 0.739115
*END

*D_NET *115 0.00390669

*CONN
*I *796:B I *C 63.63 27.51 *L 0.00171 *D NA2JIX0
*I *795:A I *C 63.21 32.13 *L 0.00163 *D OR2JIX0
*I *790:B I *C 65.31 32.13 *L 0.00334 *D EO2JIX0
*I *750:B I *C 60.27 27.51 *L 0.00164 *D AO22JIX0
*I *665:SD I *C 67.83 24.15 *L 0.00147 *D SDFRRQJIX1
*I *655:Q O *C 65.73 24.57 *L 0 *D SDFRRQJIX1

*CAP
1 *796:B 0.000110401
2 *795:A 5.28495e-05
3 *790:B 8.61193e-05
4 *750:B 5.28495e-05
5 *665:SD 5.28495e-05
6 *655:Q 5.28495e-05
7 *115:6 0.000202789
8 *115:7 6.89584e-05
9 *115:8 6.89584e-05
10 *115:9 0.00046899
11 *115:10 0.000131283
12 *115:11 0.000146061
13 *115:12 0.000211527
14 *115:13 0.000235579
15 *115:14 0.000111238
16 *115:15 0.000197522
17 *115:16 0.00020505
18 *115:17 0.000267339
19 *115:18 7.27512e-05
20 *115:19 0.000291191
21 *115:20 0.000269407
22 *115:21 0.000112233
23 *115:22 0.000154412
24 *115:23 0.000283476

*RES
1 *115:17 *790:B 0.866272
2 *115:12 *115:17 1.44374
3 *115:14 *795:A 9
4 *115:13 *115:12 9
5 *115:13 *115:14 0.554398
6 *115:11 *115:13 0.554398
7 *115:22 *665:SD 9
8 *115:11 *115:16 0.184845
9 *115:18 *655:Q 9
10 *115:22 *115:23 0.554398
11 *115:15 *115:16 0.739243
12 *115:18 *115:19 0.369553
13 *115:19 *115:23 0.92395
14 *796:B *115:15 9
15 *115:19 *115:21 0.554398
16 *115:8 *750:B 9
17 *115:10 *796:B 0.866272
18 *115:20 *115:21 9
19 *115:7 *115:8 0.369553
20 *115:9 *115:10 0.577469
21 *115:9 *115:20 2.31001
22 *115:6 *115:7 9
23 *115:6 *115:9 1.44374
*END

*D_NET *116 0.0049916

*CONN
*I *797:B I *C 57.33 39.69 *L 0.00171 *D NA2JIX0
*I *794:A I *C 59.43 39.69 *L 0.00163 *D OR2JIX0
*I *787:B I *C 58.59 42.63 *L 0.00334 *D EO2JIX0
*I *749:B I *C 48.51 39.69 *L 0.00164 *D AO22JIX0
*I *659:SD I *C 46.41 43.05 *L 0.00147 *D SDFRRQJIX1
*I *654:Q O *C 55.23 47.25 *L 0 *D SDFRRQJIX1

*CAP
1 *797:B 0.000273801
2 *794:A 5.34298e-05
3 *787:B 5.28491e-05
4 *749:B 2.57801e-05
5 *659:SD 5.28491e-05
6 *654:Q 5.28491e-05
7 *116:6 0.000137541
8 *116:7 0.00013022
9 *116:8 0.000112671
10 *116:9 0.000192242
11 *116:10 0.000260269
12 *116:11 0.000119978
13 *116:12 8.95395e-05
14 *116:13 0.000139859
15 *116:14 8.32793e-05
16 *116:15 0.000127171
17 *116:16 0.00028831
18 *116:17 0.000121509
19 *116:18 0.00028831
20 *116:19 0.000246609
21 *116:20 0.00010733
22 *116:21 0.000251571
23 *116:22 0.000114321
24 *116:23 0.00019592
25 *116:24 0.000165098
26 *116:25 0.000134932
27 *116:26 0.000201762
28 *116:27 0.000194442
29 *116:28 0.000161592
30 *116:29 0.000110929
31 *116:30 0.000175582
32 *116:31 0.00016453
33 *116:32 0.00016453

*RES
1 *116:32 *787:B 9
2 *116:29 *794:A 0.577469
3 *116:31 *116:32 0.92395
4 *116:29 *116:30 0.577469
5 *116:30 *116:31 9
6 *116:27 *654:Q 9
7 *116:28 *116:30 0.866272
8 *116:26 *116:27 1.1088
9 *797:B *116:28 0.577469
10 *116:25 *116:26 0.184845
11 *116:19 *797:B 2.31001
12 *116:24 *116:25 1.1088
13 *116:20 *116:19 9
14 *116:23 *116:24 0.369553
15 *116:20 *116:21 0.369553
16 *116:21 *116:23 0.554398
17 *116:22 *116:21 9
18 *116:17 *116:22 0.554398
19 *116:14 *749:B 0.288803
20 *116:17 *116:18 0.184845
21 *116:13 *116:14 0.577469
22 *116:16 *116:18 2.03275
23 *116:8 *116:13 0.866272
24 *116:15 *116:16 0.184845
25 *116:9 *116:8 9
26 *116:11 *116:15 0.554398
27 *116:9 *116:10 0.92395
28 *116:10 *116:11 9
29 *116:7 *659:SD 9
30 *116:10 *116:12 0.369553
31 *116:6 *116:7 0.739243
32 *116:6 *116:12 0.184845
*END

*D_NET *117 0.00396672

*CONN
*I *799:B I *C 61.95 47.25 *L 0.00171 *D NA2JIX0
*I *791:A I *C 59.43 47.25 *L 0.00163 *D OR2JIX0
*I *788:B I *C 64.47 50.19 *L 0.00629 *D EO2JIX1
*I *743:B I *C 50.61 54.81 *L 0.00164 *D AO22JIX0
*I *653:Q O *C 55.23 50.19 *L 0 *D SDFRRSJIX1

*CAP
1 *799:B 2.57822e-05
2 *791:A 8.78075e-05
3 *788:B 0.000319249
4 *743:B 5.28465e-05
5 *653:Q 5.28465e-05
6 *117:6 0.00034668
7 *117:7 0.000191951
8 *117:8 0.00034668
9 *117:9 0.000176249
10 *117:10 0.000199143
11 *117:11 4.57106e-05
12 *117:12 0.00046165
13 *117:13 0.000221812
14 *117:14 0.000238443
15 *117:15 0.000349561
16 *117:16 0.000221812
17 *117:17 0.00030678
18 *117:18 8.3278e-05
19 *117:19 0.000238443

*RES
1 *117:18 *799:B 0.288803
2 *117:18 *117:19 0.577469
3 *117:8 *743:B 9
4 *117:14 *117:19 1.44374
5 *117:6 *117:8 1.66319
6 *791:A *117:14 0.577469
7 *117:7 *117:6 9
8 *117:15 *788:B 3.46495
9 *117:13 *791:A 9
10 *117:7 *117:10 1.1088
11 *117:16 *117:15 9
12 *117:13 *117:16 1.47835
13 *117:9 *117:10 0.184845
14 *117:17 *117:16 9
15 *117:9 *117:12 0.92395
16 *117:12 *117:17 1.84804
17 *117:11 *117:12 9
18 *117:11 *653:Q 9
19 *117:5 *117:11 0.256805
*END

*D_NET *118 0.00337262

*CONN
*I *802:A I *C 62.37 72.87 *L 0.00323 *D INVJIX1
*I *798:B I *C 62.79 69.93 *L 0.00341 *D NA2JIX1
*I *789:B I *C 58.59 72.87 *L 0.00629 *D EO2JIX1
*I *748:B I *C 53.13 69.93 *L 0.00164 *D AO22JIX0
*I *652:Q O *C 57.33 72.87 *L 0 *D SDFRRSJIX1

*CAP
1 *802:A 0.000139098
2 *798:B 5.28534e-05
3 *789:B 8.62521e-05
4 *748:B 5.28534e-05
5 *652:Q 5.28534e-05
6 *118:5 7.81925e-05
7 *118:6 0.000389367
8 *118:7 7.81925e-05
9 *118:8 0.000389367
10 *118:9 0.000149791
11 *118:10 0.000258237
12 *118:11 0.000133793
13 *118:12 0.000122643
14 *118:13 0.00050018
15 *118:14 5.32197e-05
16 *118:15 4.59004e-05
17 *118:16 0.000396702
18 *118:17 0.000192913
19 *118:18 0.000200232

*RES
1 *118:17 *798:B 9
2 *118:17 *118:18 1.1088
3 *118:14 *118:18 0.184845
4 *118:14 *118:15 0.184845
5 *802:A *118:15 9
6 *802:A *118:16 0.866272
7 *789:B *118:13 0.866272
8 *118:13 *118:16 2.59882
9 *118:11 *118:13 0.866272
10 *118:12 *118:11 9
11 *118:10 *118:12 0.739243
12 *118:10 *652:Q 9
13 *118:9 *118:10 0.92395
14 *118:8 *118:9 9
15 *118:6 *118:8 2.88748
16 *118:7 *118:6 9
17 *118:5 *118:7 0.369553
18 *748:B *118:5 9
*END

*D_NET *119 0.00286802

*CONN
*I *800:B I *C 72.87 72.87 *L 0.00341 *D NA2JIX1
*I *793:B I *C 75.81 77.49 *L 0.00166 *D NO2JIX0
*I *747:B I *C 72.45 77.49 *L 0.00164 *D AO22JIX0
*I *651:Q O *C 77.07 80.43 *L 0 *D SDFRRSJIX1

*CAP
1 *800:B 8.3929e-05
2 *793:B 8.81586e-05
3 *747:B 5.28532e-05
4 *651:Q 2.74485e-05
5 *119:4 0.000146852
6 *119:5 0.000231959
7 *119:6 0.000206791
8 *119:7 0.00010662
9 *119:8 0.000246339
10 *119:9 0.000197702
11 *119:10 0.000145661
12 *119:11 0.0004435
13 *119:12 0.000239829
14 *119:13 0.00029631
15 *119:14 5.77596e-05
16 *119:15 0.00029631

*RES
1 *119:14 *651:Q 0.288803
2 *119:15 *119:14 9
3 *119:13 *119:15 1.1088
4 *119:10 *793:B 0.866272
5 *119:12 *119:13 9
6 *119:10 *119:11 0.577469
7 *119:11 *119:12 1.44374
8 *119:6 *119:11 1.44374
9 *119:8 *800:B 9
10 *119:7 *119:6 9
11 *119:8 *119:9 0.739243
12 *119:5 *747:B 9
13 *119:5 *119:7 0.369553
14 *119:4 *119:9 0.184845
15 *119:4 *119:5 1.1088
*END

*D_NET *120 0.00421472

*CONN
*I *796:A I *C 64.05 27.51 *L 0.0016 *D NA2JIX0
*I *795:B I *C 64.05 32.13 *L 0.00163 *D OR2JIX0
*I *790:A I *C 66.99 31.71 *L 0.00301 *D EO2JIX0
*I *754:B I *C 52.71 27.51 *L 0.00164 *D AO22JIX0
*I *660:Q O *C 54.81 24.57 *L 0 *D SDFRRQJIX1
*I *655:SD I *C 56.91 24.15 *L 0.00147 *D SDFRRQJIX1

*CAP
1 *796:A 5.28525e-05
2 *795:B 5.28525e-05
3 *790:A 8.39308e-05
4 *754:B 5.28525e-05
5 *660:Q 5.28525e-05
6 *655:SD 5.28525e-05
7 *120:7 0.000140002
8 *120:8 0.00017344
9 *120:9 0.000140002
10 *120:10 7.74867e-05
11 *120:11 7.74867e-05
12 *120:12 0.000322491
13 *120:13 0.000154182
14 *120:14 0.000154182
15 *120:15 0.000258841
16 *120:16 0.000117316
17 *120:17 0.000303458
18 *120:18 0.00011483
19 *120:19 0.000303458
20 *120:20 0.000136641
21 *120:21 0.000107303
22 *120:22 0.00048936
23 *120:23 0.000366914
24 *120:24 0.000191719
25 *120:25 4.57065e-05
26 *120:26 0.000191719

*RES
1 *120:9 *754:B 9
2 *120:7 *120:9 0.92395
3 *120:10 *660:Q 9
4 *120:13 *655:SD 9
5 *120:8 *120:7 9
6 *120:10 *120:11 0.369553
7 *120:13 *120:14 0.554398
8 *120:8 *120:12 0.92395
9 *120:12 *120:11 9
10 *120:15 *120:14 9
11 *120:12 *120:15 0.92395
12 *120:15 *120:16 0.554398
13 *120:16 *120:17 0.184845
14 *120:17 *120:19 2.03275
15 *120:18 *120:19 0.184845
16 *120:18 *120:21 0.554398
17 *120:20 *120:21 9
18 *120:22 *796:A 9
19 *120:20 *120:22 0.92395
20 *120:23 *795:B 9
21 *120:22 *120:23 1.84804
22 *120:24 *120:23 9
23 *120:24 *120:26 1.1088
24 *120:25 *790:A 9
25 *120:25 *120:26 9
26 *120:6 *120:25 0.211487
*END

*D_NET *121 0.00491212

*CONN
*I *797:A I *C 57.75 39.69 *L 0.0016 *D NA2JIX0
*I *794:B I *C 60.27 39.69 *L 0.00163 *D OR2JIX0
*I *787:A I *C 60.27 43.05 *L 0.00301 *D EO2JIX0
*I *759:B I *C 56.49 42.63 *L 0.00164 *D AO22JIX0
*I *664:SD I *C 45.99 35.49 *L 0.00147 *D SDFRRQJIX1
*I *659:Q O *C 55.23 42.63 *L 0 *D SDFRRQJIX1

*CAP
1 *797:A 5.28563e-05
2 *794:B 5.28563e-05
3 *787:A 5.74993e-05
4 *759:B 5.28563e-05
5 *664:SD 5.28563e-05
6 *659:Q 5.74993e-05
7 *121:8 0.000421585
8 *121:9 0.000421585
9 *121:10 0.000730411
10 *121:11 0.000160985
11 *121:12 0.00024137
12 *121:13 0.00082909
13 *121:14 0.000406455
14 *121:15 0.000337595
15 *121:16 0.000110406
16 *121:17 4.57084e-05
17 *121:18 0.000290406
18 *121:19 0.0003527
19 *121:20 4.57084e-05
20 *121:21 0.000191715

*RES
1 *121:11 *659:Q 0.577469
2 *121:19 *787:A 0.577469
3 *121:8 *664:SD 9
4 *121:16 *759:B 9
5 *121:11 *121:14 0.866272
6 *121:14 *121:19 2.31001
7 *121:8 *121:9 1.66319
8 *121:15 *121:16 0.369553
9 *121:15 *121:14 9
10 *121:10 *121:9 9
11 *121:12 *121:15 0.92395
12 *121:17 *797:A 9
13 *121:7 *121:17 0.256805
14 *121:10 *121:13 4.62003
15 *121:13 *121:12 9
16 *121:18 *121:17 9
17 *121:13 *121:18 0.554398
18 *121:18 *121:21 1.1088
19 *121:20 *794:B 9
20 *121:20 *121:21 9
21 *121:6 *121:20 0.256805
*END

*D_NET *122 0.00321501

*CONN
*I *799:A I *C 62.37 47.25 *L 0.0016 *D NA2JIX0
*I *791:B I *C 60.27 47.25 *L 0.00163 *D OR2JIX0
*I *788:A I *C 65.712 50.4 *L 0.00577 *D EO2JIX1
*I *753:B I *C 56.91 47.25 *L 0.00164 *D AO22JIX0
*I *658:Q O *C 65.73 54.81 *L 0 *D SDFRRSJIX1

*CAP
1 *799:A 5.28505e-05
2 *791:B 5.28505e-05
3 *788:A 8.78102e-05
4 *753:B 5.28505e-05
5 *658:Q 5.28505e-05
6 *122:8 4.57078e-05
7 *122:9 0.000238201
8 *122:10 0.000193903
9 *122:11 0.000367887
10 *122:12 0.000467109
11 *122:13 0.000193903
12 *122:14 4.57078e-05
13 *122:15 0.000143881
14 *122:16 0.0004943
15 *122:17 0.0003626
16 *122:18 0.0003626

*RES
1 *122:18 *658:Q 9
2 *122:17 *122:18 1.84804
3 *788:A *122:17 9
4 *122:16 *788:A 0.577469
5 *122:12 *122:16 3.75375
6 *122:8 *753:B 9
7 *122:7 *122:8 0.256805
8 *122:13 *122:12 9
9 *122:9 *122:8 9
10 *122:10 *791:B 9
11 *122:6 *122:10 0.256805
12 *122:10 *122:13 0.92395
13 *122:9 *122:11 1.47835
14 *122:11 *122:10 9
15 *122:11 *122:15 0.92395
16 *122:14 *799:A 9
17 *122:14 *122:15 9
18 *122:5 *122:14 0.256805
*END

*D_NET *123 0.00343932

*CONN
*I *801:A I *C 63.63 72.87 *L 0.00323 *D INVJIX1
*I *798:A I *C 63.21 69.93 *L 0.0032 *D NA2JIX1
*I *789:A I *C 59.832 73.08 *L 0.00577 *D EO2JIX1
*I *767:B I *C 60.27 69.93 *L 0.00164 *D AO22JIX0
*I *657:Q O *C 58.17 65.31 *L 0 *D SDFRRSJIX1

*CAP
1 *801:A 2.66467e-05
2 *798:A 5.74999e-05
3 *789:A 5.74999e-05
4 *767:B 2.57802e-05
5 *657:Q 5.2849e-05
6 *123:5 0.000162243
7 *123:6 0.000132878
8 *123:7 0.000297631
9 *123:8 0.000458163
10 *123:9 0.000256261
11 *123:10 0.000168293
12 *123:11 0.000120873
13 *123:12 0.000160073
14 *123:13 8.32801e-05
15 *123:14 0.000473923
16 *123:15 0.00048535
17 *123:16 0.000335942
18 *123:17 8.41466e-05

*RES
1 *123:17 *801:A 0.288803
2 *123:16 *123:17 0.577469
3 *123:14 *123:16 2.31001
4 *123:14 *789:A 0.577469
5 *123:13 *767:B 0.288803
6 *798:A *123:15 0.577469
7 *123:10 *123:14 1.15494
8 *123:12 *123:13 0.577469
9 *123:8 *123:15 3.46495
10 *123:11 *123:10 9
11 *123:6 *123:12 1.15494
12 *123:9 *123:8 9
13 *123:9 *123:11 0.554398
14 *123:7 *123:6 9
15 *123:7 *123:9 0.92395
16 *123:5 *123:7 1.29364
17 *657:Q *123:5 9
*END

*D_NET *124 0.00380168

*CONN
*I *800:A I *C 73.29 72.87 *L 0.0032 *D NA2JIX1
*I *793:A I *C 76.23 77.49 *L 0.00159 *D NO2JIX0
*I *744:B I *C 80.43 77.49 *L 0.00164 *D AO22JIX0
*I *656:Q O *C 89.25 80.43 *L 0 *D SDFRRSJIX1

*CAP
1 *800:A 5.28514e-05
2 *793:A 5.28514e-05
3 *744:B 5.28514e-05
4 *656:Q 5.28514e-05
5 *124:4 0.000209481
6 *124:5 0.000216797
7 *124:6 0.000117043
8 *124:7 0.000109719
9 *124:8 0.000177897
10 *124:9 8.19765e-05
11 *124:10 0.000448339
12 *124:11 8.19765e-05
13 *124:12 9.20031e-05
14 *124:13 0.00050045
15 *124:14 9.20031e-05
16 *124:15 0.000237331
17 *124:16 0.00038314
18 *124:17 0.000233146
19 *124:18 0.000375817
20 *124:19 0.000233146

*RES
1 *124:19 *656:Q 9
2 *124:17 *124:19 1.66319
3 *124:18 *124:17 9
4 *124:14 *744:B 9
5 *124:16 *124:18 2.40244
6 *124:11 *793:A 9
7 *124:12 *124:14 0.554398
8 *124:15 *124:16 0.184845
9 *124:9 *124:11 0.369553
10 *124:13 *124:12 9
11 *124:13 *124:15 1.47835
12 *124:10 *124:9 9
13 *124:10 *124:13 1.84804
14 *124:8 *124:10 1.1088
15 *124:7 *124:8 9
16 *124:6 *124:7 0.554398
17 *124:5 *124:6 0.184845
18 *124:4 *124:5 0.92395
19 *800:A *124:4 9
*END

*D_NET *125 0.00338634

*CONN
*I *826:B I *C 78.33 27.51 *L 0.00171 *D NA2JIX0
*I *825:A I *C 74.55 27.51 *L 0.00163 *D OR2JIX0
*I *820:B I *C 72.03 32.13 *L 0.00334 *D EO2JIX0
*I *755:B I *C 70.77 27.51 *L 0.00164 *D AO22JIX0
*I *670:SD I *C 78.75 24.15 *L 0.00147 *D SDFRRQJIX1
*I *665:Q O *C 76.65 24.57 *L 0 *D SDFRRQJIX1

*CAP
1 *826:B 5.74063e-05
2 *825:A 9.77619e-05
3 *820:B 5.28487e-05
4 *755:B 5.28487e-05
5 *670:SD 5.28487e-05
6 *665:Q 5.28487e-05
7 *125:6 0.000202788
8 *125:7 6.89585e-05
9 *125:8 0.000165032
10 *125:9 0.000178558
11 *125:10 0.000190943
12 *125:11 0.00012264
13 *125:12 0.00050539
14 *125:13 0.000155168
15 *125:14 0.000101564
16 *125:15 0.000421247
17 *125:16 0.000101564
18 *125:17 6.13933e-05
19 *125:18 0.000209382
20 *125:19 5.38589e-05
21 *125:20 0.000236882
22 *125:21 0.000244409

*RES
1 *125:20 *670:SD 9
2 *125:20 *125:21 0.92395
3 *125:11 *820:B 9
4 *125:17 *125:21 0.184845
5 *125:10 *125:11 0.739243
6 *125:17 *125:19 0.184845
7 *125:14 *665:Q 9
8 *125:9 *125:10 0.554398
9 *125:18 *125:19 9
10 *125:18 *826:B 0.577469
11 *125:14 *125:16 0.92395
12 *125:8 *755:B 9
13 *125:8 *125:9 1.1088
14 *125:13 *825:A 1.15494
15 *125:15 *125:18 1.15494
16 *125:15 *125:16 9
17 *125:7 *125:8 0.369553
18 *125:12 *125:13 0.577469
19 *125:12 *125:15 2.59882
20 *125:6 *125:7 9
21 *125:6 *125:12 1.44374
*END

*D_NET *126 0.00496245

*CONN
*I *827:B I *C 56.07 32.13 *L 0.00171 *D NA2JIX0
*I *824:A I *C 57.33 32.13 *L 0.00163 *D OR2JIX0
*I *817:B I *C 55.23 35.07 *L 0.00334 *D EO2JIX0
*I *758:B I *C 51.45 39.69 *L 0.00164 *D AO22JIX0
*I *669:SD I *C 46.41 31.71 *L 0.00147 *D SDFRRQJIX1
*I *664:Q O *C 54.81 35.07 *L 0 *D SDFRRQJIX1

*CAP
1 *827:B 0.00014134
2 *824:A 5.74087e-05
3 *817:B 8.31891e-05
4 *758:B 5.28483e-05
5 *669:SD 5.28483e-05
6 *664:Q 2.57804e-05
7 *126:6 0.000106624
8 *126:7 0.000382954
9 *126:8 0.000106624
10 *126:9 0.000690519
11 *126:10 0.00071499
12 *126:11 0.000690519
13 *126:12 0.000126404
14 *126:13 0.000162352
15 *126:14 0.00034623
16 *126:15 0.000489087
17 *126:16 0.000169902
18 *126:17 9.93033e-05
19 *126:18 0.000293644
20 *126:19 0.000169902

*RES
1 *824:A *126:19 0.577469
2 *664:Q *817:B 0.288803
3 *126:16 *126:19 0.866272
4 *126:12 *817:B 0.577469
5 *827:B *126:16 0.577469
6 *126:12 *126:17 0.577469
7 *126:18 *126:17 9
8 *126:15 *827:B 9
9 *126:15 *126:18 1.1088
10 *126:11 *758:B 9
11 *126:13 *126:15 0.554398
12 *126:9 *126:11 4.06563
13 *126:14 *126:13 9
14 *126:10 *126:9 9
15 *126:10 *126:14 2.03275
16 *126:8 *669:SD 9
17 *126:7 *126:10 2.21759
18 *126:6 *126:8 0.369553
19 *126:6 *126:7 9
*END

*D_NET *127 0.00491675

*CONN
*I *829:B I *C 64.47 62.37 *L 0.00171 *D NA2JIX0
*I *821:A I *C 59.43 65.31 *L 0.00163 *D OR2JIX0
*I *818:B I *C 64.47 65.31 *L 0.00629 *D EO2JIX1
*I *757:B I *C 52.29 62.37 *L 0.00164 *D AO22JIX0
*I *663:Q O *C 53.55 57.75 *L 0 *D SDFRRSJIX1

*CAP
1 *829:B 7.73421e-05
2 *821:A 5.28497e-05
3 *818:B 8.62504e-05
4 *757:B 5.28497e-05
5 *663:Q 2.74496e-05
6 *127:6 8.99104e-05
7 *127:7 8.60308e-05
8 *127:8 0.00012001
9 *127:9 4.7799e-05
10 *127:10 5.77614e-05
11 *127:11 0.000329462
12 *127:12 0.000366947
13 *127:13 0.00047971
14 *127:14 0.000157254
15 *127:15 0.000103137
16 *127:16 0.000319367
17 *127:17 0.000103137
18 *127:18 0.00047971
19 *127:19 0.000237831
20 *127:20 0.000235057
21 *127:21 0.00043481
22 *127:22 0.000227737
23 *127:23 0.000107647
24 *127:24 0.000102266
25 *127:25 0.000200587
26 *127:26 0.000109594
27 *127:27 0.000224231

*RES
1 *127:10 *663:Q 0.288803
2 *127:11 *127:10 9
3 *127:11 *127:12 1.47835
4 *127:6 *127:12 0.369553
5 *127:9 *757:B 9
6 *127:15 *821:A 9
7 *127:6 *127:7 0.184845
8 *127:7 *127:9 0.184845
9 *127:15 *127:17 0.554398
10 *127:8 *127:7 9
11 *127:16 *127:17 9
12 *818:B *127:27 0.866272
13 *127:8 *127:14 0.554398
14 *127:16 *127:21 2.31001
15 *127:21 *127:27 1.15494
16 *127:13 *127:14 0.369553
17 *127:22 *127:21 9
18 *127:13 *127:18 2.95683
19 *127:20 *127:22 1.29364
20 *127:18 *127:19 0.369553
21 *127:23 *829:B 0.866272
22 *127:20 *127:26 0.184845
23 *127:19 *127:25 1.29364
24 *127:24 *127:23 9
25 *127:24 *127:26 0.92395
26 *127:24 *127:25 9
27 *127:5 *127:24 0.256805
*END

*D_NET *128 0.00225698

*CONN
*I *832:A I *C 75.81 62.37 *L 0.00323 *D INVJIX1
*I *828:B I *C 74.13 62.37 *L 0.00341 *D NA2JIX1
*I *819:B I *C 78.33 57.75 *L 0.00629 *D EO2JIX1
*I *756:B I *C 76.23 57.75 *L 0.00164 *D AO22JIX0
*I *662:Q O *C 78.75 54.81 *L 0 *D SDFRRSJIX1

*CAP
1 *832:A 5.75005e-05
2 *828:B 2.76607e-05
3 *819:B 7.86302e-05
4 *756:B 5.28507e-05
5 *662:Q 5.28507e-05
6 *128:5 0.000145089
7 *128:6 8.51613e-05
8 *128:7 6.32415e-05
9 *128:8 0.00017384
10 *128:9 0.000165231
11 *128:10 0.000181099
12 *128:11 0.000165231
13 *128:12 0.00020548
14 *128:13 0.00016915
15 *128:14 0.00020548
16 *128:15 0.000125589
17 *128:16 9.40314e-05
18 *128:17 0.000125589
19 *128:18 8.328e-05

*RES
1 *128:15 *662:Q 9
2 *128:15 *128:17 0.92395
3 *128:16 *128:17 9
4 *128:16 *128:18 0.577469
5 *819:B *128:18 0.288803
6 *128:12 *819:B 9
7 *128:9 *756:B 9
8 *128:12 *128:14 1.1088
9 *128:9 *128:11 1.29364
10 *128:13 *128:14 9
11 *128:10 *128:11 9
12 *128:10 *128:13 1.44374
13 *128:7 *128:10 0.288803
14 *128:6 *828:B 0.288803
15 *128:7 *128:8 0.288803
16 *128:8 *832:A 0.577469
17 *128:5 *128:6 0.577469
18 *128:5 *128:8 1.44374
*END

*D_NET *129 0.00380974

*CONN
*I *830:B I *C 83.37 72.87 *L 0.00341 *D NA2JIX1
*I *823:B I *C 85.05 72.87 *L 0.00166 *D NO2JIX0
*I *766:B I *C 84.63 85.05 *L 0.00164 *D AO22JIX0
*I *661:Q O *C 89.67 87.99 *L 0 *D SDFRRSJIX1

*CAP
1 *830:B 2.66488e-05
2 *823:B 5.74995e-05
3 *766:B 2.57772e-05
4 *661:Q 5.28488e-05
5 *129:4 8.41482e-05
6 *129:5 0.000132613
7 *129:6 0.00042627
8 *129:7 0.00042627
9 *129:8 0.00019423
10 *129:9 0.00014583
11 *129:10 0.000153063
12 *129:11 0.000121861
13 *129:12 5.67579e-05
14 *129:13 0.00026719
15 *129:14 0.000166748
16 *129:15 0.000395829
17 *129:16 8.38621e-05
18 *129:17 8.31921e-05
19 *129:18 0.000168849
20 *129:19 0.000172212
21 *129:20 0.000395829
22 *129:21 0.000172212

*RES
1 *129:21 *661:Q 9
2 *129:19 *129:21 0.92395
3 *129:17 *766:B 0.288803
4 *129:20 *129:19 9
5 *129:16 *129:17 0.577469
6 *129:15 *129:20 2.58714
7 *129:12 *129:16 0.288803
8 *129:14 *129:15 9
9 *129:13 *129:12 9
10 *129:13 *129:14 0.92395
11 *129:11 *129:13 0.554398
12 *129:7 *129:11 0.184845
13 *129:6 *129:7 2.95683
14 *129:6 *129:10 0.184845
15 *823:B *129:18 0.577469
16 *129:9 *129:10 0.739243
17 *129:8 *129:18 0.866272
18 *129:8 *129:9 9
19 *129:5 *129:8 0.577469
20 *129:4 *830:B 0.288803
21 *129:4 *129:5 0.577469
*END

*D_NET *130 0.00573174

*CONN
*I *961:SD I *C 93.03 31.71 *L 0.00147 *D SDFRRQJIX1
*I *826:A I *C 77.91 27.51 *L 0.0016 *D NA2JIX0
*I *825:B I *C 75.39 27.51 *L 0.00163 *D OR2JIX0
*I *820:A I *C 73.71 31.71 *L 0.00301 *D EO2JIX0
*I *763:B I *C 81.69 27.51 *L 0.00164 *D AO22JIX0
*I *670:Q O *C 87.57 24.57 *L 0 *D SDFRRQJIX1

*CAP
1 *961:SD 5.28471e-05
2 *826:A 5.28471e-05
3 *825:B 5.74065e-05
4 *820:A 8.39269e-05
5 *763:B 7.7618e-05
6 *670:Q 5.28471e-05
7 *130:6 0.000172521
8 *130:7 0.000201132
9 *130:8 0.000257091
10 *130:9 0.000228333
11 *130:10 0.000248243
12 *130:11 0.000165648
13 *130:12 0.0005073
14 *130:13 0.000165648
15 *130:14 0.000110888
16 *130:15 0.000366121
17 *130:16 0.000479719
18 *130:17 6.89637e-05
19 *130:18 6.89637e-05
20 *130:19 9.40287e-05
21 *130:20 0.000479719
22 *130:21 0.000285902
23 *130:22 0.000213587
24 *130:23 0.000357537
25 *130:24 0.000148501
26 *130:25 0.000156033
27 *130:26 0.000110408
28 *130:27 0.000357537
29 *130:28 0.000110408

*RES
1 *130:28 *961:SD 9
2 *130:26 *130:28 0.369553
3 *130:24 *670:Q 9
4 *130:27 *130:26 9
5 *130:24 *130:25 0.554398
6 *130:23 *130:27 2.58714
7 *130:19 *130:25 0.184845
8 *130:22 *130:23 9
9 *130:19 *130:21 0.369553
10 *130:21 *130:22 1.66319
11 *130:20 *130:21 9
12 *130:16 *130:20 3.75375
13 *130:17 *130:16 9
14 *130:17 *130:18 0.369553
15 *763:B *130:18 9
16 *130:11 *826:A 9
17 *130:14 *763:B 0.288803
18 *130:11 *130:13 0.739243
19 *130:14 *130:15 0.866272
20 *130:12 *130:13 9
21 *130:12 *130:15 2.31001
22 *130:8 *820:A 9
23 *130:10 *130:12 1.73254
24 *130:7 *130:8 1.29364
25 *825:B *130:9 0.577469
26 *130:9 *130:10 0.288803
27 *130:6 *130:7 9
28 *130:6 *130:9 1.44374
*END

*D_NET *131 0.00556624

*CONN
*I *827:A I *C 56.49 32.13 *L 0.0016 *D NA2JIX0
*I *824:B I *C 58.17 32.13 *L 0.00163 *D OR2JIX0
*I *817:A I *C 56.91 35.49 *L 0.00301 *D EO2JIX0
*I *761:B I *C 49.35 27.51 *L 0.00164 *D AO22JIX0
*I *669:Q O *C 55.23 32.13 *L 0 *D SDFRRQJIX1
*I *660:SD I *C 45.99 24.15 *L 0.00147 *D SDFRRQJIX1

*CAP
1 *827:A 5.28484e-05
2 *824:B 5.28484e-05
3 *817:A 5.28484e-05
4 *761:B 2.57791e-05
5 *669:Q 5.28484e-05
6 *660:SD 5.28484e-05
7 *131:6 0.00037647
8 *131:7 0.000271771
9 *131:8 0.000443964
10 *131:9 8.1687e-05
11 *131:10 0.000794908
12 *131:11 8.31901e-05
13 *131:12 0.000298867
14 *131:13 0.000149141
15 *131:14 0.00087174
16 *131:15 0.000149141
17 *131:16 0.000219854
18 *131:17 0.000174321
19 *131:18 0.00055723
20 *131:19 0.000351556
21 *131:20 0.000177434
22 *131:21 9.74896e-05
23 *131:22 0.000177434

*RES
1 *131:19 *817:A 9
2 *131:22 *824:B 9
3 *131:18 *827:A 9
4 *131:18 *131:19 1.29364
5 *131:20 *131:22 0.92395
6 *131:16 *131:18 1.1088
7 *131:21 *131:20 9
8 *131:15 *669:Q 9
9 *131:17 *131:16 9
10 *131:17 *131:21 0.739243
11 *131:13 *131:15 0.92395
12 *131:11 *761:B 0.288803
13 *131:14 *131:17 0.554398
14 *131:14 *131:13 9
15 *131:11 *131:12 0.577469
16 *131:10 *131:14 4.06563
17 *131:7 *131:12 2.02121
18 *131:9 *131:10 9
19 *131:8 *131:7 9
20 *131:8 *131:9 0.369553
21 *131:6 *131:8 2.03275
22 *660:SD *131:6 9
*END

*D_NET *132 0.00313051

*CONN
*I *829:A I *C 64.89 62.37 *L 0.0016 *D NA2JIX0
*I *821:B I *C 60.27 65.31 *L 0.00163 *D OR2JIX0
*I *818:A I *C 65.712 65.52 *L 0.00577 *D EO2JIX1
*I *764:B I *C 59.01 62.37 *L 0.00164 *D AO22JIX0
*I *668:Q O *C 65.73 57.75 *L 0 *D SDFRRSJIX1

*CAP
1 *829:A 5.28509e-05
2 *821:B 5.28509e-05
3 *818:A 5.75017e-05
4 *764:B 5.28509e-05
5 *668:Q 2.74505e-05
6 *132:5 7.3573e-05
7 *132:6 8.08931e-05
8 *132:7 0.00015417
9 *132:8 0.000404417
10 *132:9 8.65002e-05
11 *132:10 0.000188019
12 *132:11 0.000150531
13 *132:12 8.13816e-05
14 *132:13 0.000225707
15 *132:14 0.00045087
16 *132:15 0.000165838
17 *132:16 5.77631e-05
18 *132:17 0.000316768
19 *132:18 0.000324088
20 *132:19 0.000126493

*RES
1 *132:16 *668:Q 0.288803
2 *132:17 *132:16 9
3 *132:17 *132:18 1.47835
4 *132:12 *132:18 0.184845
5 *132:13 *829:A 9
6 *132:12 *132:13 0.369553
7 *132:19 *818:A 0.577469
8 *132:13 *132:15 0.92395
9 *132:14 *132:19 0.577469
10 *132:14 *132:15 9
11 *132:11 *821:B 9
12 *132:8 *132:14 3.75375
13 *132:10 *132:11 0.739243
14 *132:9 *132:8 9
15 *132:7 *132:10 0.369553
16 *132:7 *132:9 0.369553
17 *132:6 *132:7 0.184845
18 *132:5 *132:6 0.554398
19 *764:B *132:5 9
*END

*D_NET *133 0.00435067

*CONN
*I *831:A I *C 79.59 62.37 *L 0.00323 *D INVJIX1
*I *828:A I *C 74.55 62.37 *L 0.0032 *D NA2JIX1
*I *819:A I *C 79.572 57.96 *L 0.00577 *D EO2JIX1
*I *762:B I *C 71.19 47.25 *L 0.00164 *D AO22JIX0
*I *667:Q O *C 78.75 50.19 *L 0 *D SDFRRSJIX1

*CAP
1 *831:A 3.7122e-05
2 *828:A 5.2852e-05
3 *819:A 5.2852e-05
4 *762:B 5.2852e-05
5 *667:Q 5.2852e-05
6 *133:8 0.000216168
7 *133:9 0.000216168
8 *133:10 0.000107302
9 *133:11 0.000346092
10 *133:12 0.00011449
11 *133:13 4.57085e-05
12 *133:14 0.00030573
13 *133:15 0.000346427
14 *133:16 0.000115663
15 *133:17 0.000236002
16 *133:18 0.000108133
17 *133:19 0.000243319
18 *133:20 0.000113949
19 *133:21 0.000113949
20 *133:22 0.000113943
21 *133:23 7.36515e-05
22 *133:24 0.000106619
23 *133:25 0.00030573
24 *133:26 0.000177159
25 *133:27 0.00042214
26 *133:28 0.000273813

*RES
1 *133:8 *762:B 9
2 *133:8 *133:9 1.29364
3 *133:10 *133:9 9
4 *133:10 *133:12 0.554398
5 *133:11 *133:12 0.184845
6 *133:11 *133:15 2.21759
7 *133:15 *133:16 0.184845
8 *133:16 *133:18 0.554398
9 *133:17 *133:18 9
10 *133:7 *133:17 0.256805
11 *133:17 *667:Q 9
12 *133:17 *133:19 1.66319
13 *133:19 *133:20 0.184845
14 *133:20 *133:21 0.554398
15 *133:21 *133:26 0.184845
16 *133:13 *828:A 9
17 *133:6 *133:13 0.256805
18 *133:27 *819:A 9
19 *133:26 *133:27 1.1088
20 *133:14 *133:13 9
21 *133:27 *133:28 1.66319
22 *133:23 *831:A 0.288803
23 *133:14 *133:25 2.03275
24 *133:22 *133:28 0.184845
25 *133:24 *133:23 9
26 *133:24 *133:25 9
27 *133:22 *133:24 0.369553
28 *133:5 *133:24 0.256805
*END

*D_NET *134 0.00663822

*CONN
*I *830:A I *C 83.79 72.87 *L 0.0032 *D NA2JIX1
*I *823:A I *C 85.47 72.87 *L 0.00159 *D NO2JIX0
*I *760:B I *C 78.33 92.61 *L 0.00164 *D AO22JIX0
*I *666:Q O *C 91.35 92.61 *L 0 *D SDFRRSJIX1

*CAP
1 *830:A 5.75016e-05
2 *823:A 5.28408e-05
3 *760:B 5.28408e-05
4 *666:Q 5.28408e-05
5 *134:4 0.000208141
6 *134:5 0.000158465
7 *134:6 0.000208141
8 *134:7 0.00025799
9 *134:8 0.000165773
10 *134:9 0.00025799
11 *134:10 0.000106545
12 *134:11 0.000186621
13 *134:12 0.00125696
14 *134:13 0.00121964
15 *134:14 0.000204305
16 *134:15 0.000159443
17 *134:16 0.000105854
18 *134:17 0.000328668
19 *134:18 0.000274331
20 *134:19 0.000330068
21 *134:20 0.000126588
22 *134:21 0.000330068
23 *134:22 0.000159194
24 *134:23 0.000112759
25 *134:24 0.000151886
26 *134:25 0.000112759

*RES
1 *134:11 *830:A 0.577469
2 *134:25 *666:Q 9
3 *134:11 *134:15 1.15494
4 *134:23 *134:25 0.369553
5 *134:16 *134:15 9
6 *134:24 *134:23 9
7 *134:17 *823:A 9
8 *134:16 *134:17 0.554398
9 *134:22 *134:24 0.554398
10 *134:17 *134:18 1.47835
11 *134:21 *134:22 0.184845
12 *134:12 *134:18 0.369553
13 *134:19 *134:21 1.84804
14 *134:12 *134:13 6.46806
15 *134:19 *134:20 0.184845
16 *134:14 *134:13 9
17 *134:14 *134:20 0.554398
18 *134:10 *134:14 0.554398
19 *134:9 *134:10 0.184845
20 *134:7 *134:9 1.66319
21 *134:7 *134:8 0.184845
22 *134:6 *760:B 9
23 *134:5 *134:8 0.554398
24 *134:4 *134:6 0.554398
25 *134:4 *134:5 9
*END

*D_NET *135 0.00529631

*CONN
*I *850:A I *C 101.43 39.69 *L 0.00163 *D OR2JIX0
*I *845:B I *C 95.13 42.63 *L 0.00334 *D EO2JIX0
*I *833:D I *C 101.43 42.21 *L 0.00168 *D AO22JIX0
*I *741:B I *C 105.63 35.07 *L 0.00164 *D AO22JIX0
*I *680:SD I *C 104.79 39.27 *L 0.00147 *D SDFRRQJIX1
*I *675:Q O *C 112.77 42.63 *L 0 *D SDFRRQJIX1

*CAP
1 *850:A 5.28458e-05
2 *845:B 5.28458e-05
3 *833:D 5.28458e-05
4 *741:B 5.28458e-05
5 *680:SD 5.28458e-05
6 *675:Q 5.28458e-05
7 *135:9 4.57141e-05
8 *135:10 0.000404834
9 *135:11 6.90584e-05
10 *135:12 0.000412355
11 *135:13 0.000254517
12 *135:14 0.000254517
13 *135:15 0.000260789
14 *135:16 7.41263e-05
15 *135:17 0.00075141
16 *135:18 0.00011585
17 *135:19 0.00037711
18 *135:20 0.000246629
19 *135:21 6.66047e-05
20 *135:22 0.000504598
21 *135:23 0.000542091
22 *135:24 4.57141e-05
23 *135:25 0.000553293

*RES
1 *135:22 *741:B 9
2 *135:18 *680:SD 9
3 *135:22 *135:23 2.21759
4 *135:18 *135:19 0.369553
5 *135:19 *135:23 0.369553
6 *135:19 *135:20 0.92395
7 *135:21 *135:20 9
8 *135:7 *135:24 0.256805
9 *135:24 *675:Q 9
10 *135:13 *850:A 9
11 *135:16 *135:21 0.184845
12 *135:25 *135:24 9
13 *135:14 *833:D 9
14 *135:13 *135:14 1.29364
15 *135:8 *135:14 0.256805
16 *135:16 *135:17 0.184845
17 *135:17 *135:25 3.69594
18 *135:15 *135:14 9
19 *135:15 *135:17 1.29364
20 *135:11 *135:15 0.369553
21 *135:11 *135:12 0.184845
22 *135:10 *135:12 2.40244
23 *135:9 *845:B 9
24 *135:9 *135:10 9
25 *135:6 *135:9 0.256805
*END

*D_NET *136 0.00515229

*CONN
*I *849:B I *C 105.21 50.19 *L 0.00171 *D NA2JIX0
*I *847:A I *C 103.95 54.81 *L 0.00163 *D OR2JIX0
*I *843:B I *C 109.41 54.81 *L 0.00334 *D EO2JIX0
*I *765:B I *C 107.73 50.19 *L 0.00164 *D AO22JIX0
*I *675:SD I *C 103.95 43.05 *L 0.00147 *D SDFRRQJIX1
*I *674:Q O *C 112.77 47.25 *L 0 *D SDFRRQJIX1

*CAP
1 *849:B 5.28519e-05
2 *847:A 5.28519e-05
3 *843:B 5.28519e-05
4 *765:B 2.57834e-05
5 *675:SD 5.28519e-05
6 *674:Q 5.28519e-05
7 *136:6 0.000106147
8 *136:7 0.000204
9 *136:8 0.000195942
10 *136:9 0.000128267
11 *136:10 0.000157248
12 *136:11 0.000328618
13 *136:12 0.000255049
14 *136:13 0.000243432
15 *136:14 0.00028313
16 *136:15 0.00013241
17 *136:16 0.000382253
18 *136:17 0.000291719
19 *136:18 0.000112033
20 *136:19 0.000310988
21 *136:20 0.000209037
22 *136:21 0.00048402
23 *136:22 0.000209037
24 *136:23 0.000306919
25 *136:24 0.000306919
26 *136:25 0.000215078

*RES
1 *136:23 *674:Q 9
2 *136:22 *843:B 9
3 *136:23 *136:24 2.03275
4 *136:18 *765:B 0.288803
5 *136:9 *847:A 9
6 *136:20 *136:22 1.1088
7 *136:25 *136:24 9
8 *136:18 *136:19 0.866272
9 *136:8 *136:9 0.92395
10 *136:21 *136:20 9
11 *136:21 *136:25 1.47835
12 *136:12 *136:19 1.44374
13 *136:8 *136:15 0.554398
14 *136:14 *136:21 1.84804
15 *136:13 *136:12 9
16 *136:13 *136:15 0.184845
17 *136:13 *136:14 9
18 *136:11 *849:B 9
19 *136:11 *136:13 0.739243
20 *136:10 *136:11 0.739243
21 *136:10 *136:17 0.184845
22 *136:16 *136:17 1.84804
23 *136:7 *136:16 0.739243
24 *136:6 *136:7 0.369553
25 *675:SD *136:6 9
*END

*D_NET *137 0.00274046

*CONN
*I *852:A I *C 108.99 69.93 *L 0.00323 *D INVJIX1
*I *851:B I *C 106.47 69.93 *L 0.00171 *D NA2JIX0
*I *745:B I *C 106.47 72.87 *L 0.00164 *D AO22JIX0
*I *673:Q O *C 112.77 77.49 *L 0 *D SDFRRSJIX1

*CAP
1 *852:A 5.15374e-05
2 *851:B 8.05076e-05
3 *745:B 5.2851e-05
4 *673:Q 5.2851e-05
5 *137:4 0.000175882
6 *137:5 8.51573e-05
7 *137:6 0.000183038
8 *137:7 0.000275472
9 *137:8 0.000108549
10 *137:9 0.00010662
11 *137:10 0.000175882
12 *137:11 0.000109038
13 *137:12 0.00026088
14 *137:13 0.000227068
15 *137:14 0.00036019
16 *137:15 7.47421e-05
17 *137:16 0.00036019

*RES
1 *137:16 *673:Q 9
2 *137:14 *137:16 2.21759
3 *137:15 *137:14 9
4 *137:13 *137:15 0.554398
5 *137:12 *137:13 1.29364
6 *137:9 *745:B 9
7 *137:8 *137:12 0.92395
8 *137:7 *137:9 0.369553
9 *137:7 *137:8 9
10 *137:6 *137:7 0.92395
11 *851:B *137:6 9
12 *137:11 *852:A 0.577469
13 *137:10 *137:11 0.577469
14 *137:5 *851:B 0.288803
15 *137:4 *137:10 1.44374
16 *137:4 *137:5 0.577469
*END

*D_NET *138 0.00511996

*CONN
*I *855:B I *C 100.17 85.05 *L 0.00317 *D ON211JIX1
*I *848:B I *C 97.65 80.43 *L 0.00171 *D NA2JIX0
*I *842:C I *C 90.93 80.43 *L 0.0034 *D EO3JIX0
*I *737:B I *C 106.47 85.05 *L 0.00164 *D AO22JIX0
*I *672:Q O *C 111.93 80.43 *L 0 *D SDFRRSJIX1

*CAP
1 *855:B 5.28564e-05
2 *848:B 2.57785e-05
3 *842:C 8.6119e-05
4 *737:B 5.28564e-05
5 *672:Q 5.28564e-05
6 *138:5 0.000604769
7 *138:6 0.000111898
8 *138:7 0.00085151
9 *138:8 0.000277054
10 *138:9 0.000253978
11 *138:10 0.000317983
12 *138:11 0.000118459
13 *138:12 7.81931e-05
14 *138:13 0.000232345
15 *138:14 0.000125774
16 *138:15 0.000232345
17 *138:16 0.000114626
18 *138:17 8.25978e-05
19 *138:18 0.000381974
20 *138:19 8.25978e-05
21 *138:20 0.000107519
22 *138:21 0.00029618
23 *138:22 0.000239751
24 *138:23 0.000239751
25 *138:24 0.000100204

*RES
1 *138:22 *672:Q 9
2 *138:22 *138:23 1.29364
3 *138:24 *138:23 9
4 *138:19 *737:B 9
5 *138:20 *138:24 0.554398
6 *138:17 *138:19 0.369553
7 *138:20 *138:21 0.184845
8 *138:18 *138:17 9
9 *138:18 *138:21 1.84804
10 *138:16 *138:18 0.554398
11 *138:15 *138:16 0.184845
12 *138:13 *138:15 1.66319
13 *138:13 *138:14 0.184845
14 *138:12 *855:B 9
15 *138:11 *138:14 0.554398
16 *138:10 *138:12 0.369553
17 *138:10 *138:11 9
18 *138:9 *138:10 0.92395
19 *138:6 *848:B 0.288803
20 *138:8 *138:9 9
21 *138:6 *138:7 0.866272
22 *138:7 *138:8 2.02121
23 *138:5 *138:7 4.33122
24 *842:C *138:5 0.866272
*END

*D_NET *139 0.00347217

*CONN
*I *856:B I *C 91.35 85.05 *L 0.00629 *D EO2JIX1
*I *855:D I *C 98.91 85.05 *L 0.00337 *D ON211JIX1
*I *854:B I *C 94.29 85.05 *L 0.0017 *D AND2JIX0
*I *742:B I *C 96.81 87.99 *L 0.00164 *D AO22JIX0
*I *671:Q O *C 103.53 92.61 *L 0 *D SDFRRSJIX1

*CAP
1 *856:B 5.28481e-05
2 *855:D 0.000183953
3 *854:B 5.28481e-05
4 *742:B 5.28481e-05
5 *671:Q 5.28481e-05
6 *139:8 4.57075e-05
7 *139:9 0.000188981
8 *139:10 4.57075e-05
9 *139:11 0.000292573
10 *139:12 0.000214264
11 *139:13 8.53901e-05
12 *139:14 0.000117783
13 *139:15 0.000122722
14 *139:16 0.000182079
15 *139:17 0.000199521
16 *139:18 6.89592e-05
17 *139:19 0.00048746
18 *139:20 8.09272e-05
19 *139:21 7.36973e-05
20 *139:22 0.000188178
21 *139:23 0.00048746
22 *139:24 0.000195408

*RES
1 *139:21 *671:Q 9
2 *139:20 *139:21 0.369553
3 *139:20 *139:24 0.184845
4 *139:22 *139:24 1.1088
5 *139:23 *139:22 9
6 *139:19 *139:23 3.14154
7 *139:8 *856:B 9
8 *139:7 *139:8 0.256805
9 *139:18 *139:19 9
10 *139:10 *854:B 9
11 *139:6 *139:10 0.256805
12 *139:9 *139:8 9
13 *139:17 *742:B 9
14 *139:17 *139:18 0.369553
15 *139:11 *139:10 9
16 *139:9 *139:11 1.29364
17 *139:16 *139:17 0.92395
18 *139:12 *855:D 2.02121
19 *139:11 *139:14 0.739243
20 *139:15 *139:16 0.369553
21 *139:13 *139:12 9
22 *139:13 *139:14 9
23 *139:13 *139:15 0.554398
24 *139:5 *139:13 0.256805
*END

*D_NET *140 0.00574143

*CONN
*I *966:SD I *C 95.13 35.49 *L 0.00147 *D SDFRRQJIX1
*I *850:B I *C 100.59 39.69 *L 0.00163 *D OR2JIX0
*I *845:A I *C 96.81 43.05 *L 0.00301 *D EO2JIX0
*I *833:C I *C 100.59 42.63 *L 0.00157 *D AO22JIX0
*I *746:B I *C 108.57 35.07 *L 0.00164 *D AO22JIX0
*I *680:Q O *C 113.61 39.69 *L 0 *D SDFRRQJIX1

*CAP
1 *966:SD 5.28543e-05
2 *850:B 0.000110351
3 *845:A 5.28543e-05
4 *833:C 5.28543e-05
5 *746:B 5.28543e-05
6 *680:Q 5.28543e-05
7 *140:7 0.000116105
8 *140:8 4.77998e-05
9 *140:9 0.00031468
10 *140:10 0.000571775
11 *140:11 0.000310761
12 *140:12 9.26292e-05
13 *140:13 0.000179018
14 *140:14 5.51382e-05
15 *140:15 0.000206213
16 *140:16 7.6542e-05
17 *140:17 0.000517685
18 *140:18 0.000309376
19 *140:19 0.000247024
20 *140:20 0.000544381
21 *140:21 0.000544381
22 *140:22 0.0008179
23 *140:23 5.05205e-05
24 *140:24 0.000314405
25 *140:25 5.05205e-05

*RES
1 *140:8 *966:SD 9
2 *140:7 *140:8 0.184845
3 *140:7 *140:9 0.554398
4 *140:11 *845:A 9
5 *140:9 *140:10 1.29364
6 *140:10 *140:11 2.03275
7 *140:10 *140:12 0.369553
8 *140:12 *140:14 0.184845
9 *140:13 *140:14 9
10 *140:13 *140:15 2.31001
11 *140:15 *850:B 0.577469
12 *140:19 *833:C 9
13 *140:18 *850:B 9
14 *140:18 *140:19 1.29364
15 *140:20 *746:B 9
16 *140:16 *140:18 0.369553
17 *140:20 *140:21 1.66319
18 *140:17 *140:16 9
19 *140:22 *140:21 9
20 *140:17 *140:22 3.51123
21 *140:22 *140:24 2.21759
22 *140:25 *680:Q 9
23 *140:23 *140:24 9
24 *140:23 *140:25 0.184845
25 *140:6 *140:23 0.0811615
*END

*D_NET *141 0.00394503

*CONN
*I *849:A I *C 105.63 50.19 *L 0.0016 *D NA2JIX0
*I *847:B I *C 104.79 54.81 *L 0.00163 *D OR2JIX0
*I *843:A I *C 111.09 54.39 *L 0.00301 *D EO2JIX0
*I *738:B I *C 107.31 54.81 *L 0.00164 *D AO22JIX0
*I *679:Q O *C 112.35 57.75 *L 0 *D SDFRRQJIX1
*I *674:SD I *C 103.95 46.83 *L 0.00147 *D SDFRRQJIX1

*CAP
1 *849:A 5.28474e-05
2 *847:B 5.74981e-05
3 *843:A 5.74981e-05
4 *738:B 7.76218e-05
5 *679:Q 5.28474e-05
6 *674:SD 5.28474e-05
7 *141:7 0.000377647
8 *141:8 0.000377647
9 *141:9 9.37486e-05
10 *141:10 0.000112403
11 *141:11 0.00031491
12 *141:12 9.37486e-05
13 *141:13 6.52787e-05
14 *141:14 0.00031491
15 *141:15 0.000140233
16 *141:16 0.000114078
17 *141:17 8.22725e-05
18 *141:18 0.000110757
19 *141:19 0.000316321
20 *141:20 0.000110757
21 *141:21 0.00048149
22 *141:22 0.000168292
23 *141:23 0.000159681
24 *141:24 0.000159681

*RES
1 *141:24 *679:Q 9
2 *141:23 *141:24 0.92395
3 *141:22 *141:23 9
4 *843:A *141:21 0.577469
5 *141:21 *141:22 1.15494
6 *141:19 *141:21 2.31001
7 *141:20 *141:19 9
8 *141:18 *141:20 0.369553
9 *738:B *141:18 9
10 *141:17 *738:B 0.288803
11 *141:7 *674:SD 9
12 *141:10 *847:B 0.577469
13 *141:16 *141:17 0.577469
14 *141:7 *141:8 1.47835
15 *141:10 *141:15 0.577469
16 *141:15 *141:16 0.866272
17 *141:9 *141:8 9
18 *141:13 *141:15 0.288803
19 *141:9 *141:12 0.739243
20 *141:14 *141:13 9
21 *141:11 *849:A 9
22 *141:11 *141:12 9
23 *141:11 *141:14 1.29364
24 *141:6 *141:11 0.256805
*END

*D_NET *142 0.00307462

*CONN
*I *853:A I *C 110.25 69.93 *L 0.00323 *D INVJIX1
*I *851:A I *C 106.89 69.93 *L 0.0016 *D NA2JIX0
*I *752:B I *C 106.89 65.31 *L 0.00164 *D AO22JIX0
*I *678:Q O *C 111.93 62.37 *L 0 *D SDFRRSJIX1

*CAP
1 *853:A 8.62521e-05
2 *851:A 5.28508e-05
3 *752:B 5.28508e-05
4 *678:Q 5.28508e-05
5 *142:4 0.000334107
6 *142:5 0.000317097
7 *142:6 0.000512799
8 *142:7 0.000192879
9 *142:8 0.00051396
10 *142:9 0.000393867
11 *142:10 0.000171234
12 *142:11 0.000393867

*RES
1 *142:9 *678:Q 9
2 *142:9 *142:11 2.58714
3 *142:10 *142:11 9
4 *142:8 *853:A 0.866272
5 *142:8 *142:10 1.15494
6 *142:7 *851:A 9
7 *142:5 *142:8 2.31001
8 *142:6 *142:7 0.739243
9 *142:6 *142:5 9
10 *142:4 *142:6 1.29364
11 *752:B *142:4 9
*END

*D_NET *143 0.00408133

*CONN
*I *855:A I *C 101.01 85.05 *L 0.00315 *D ON211JIX1
*I *848:A I *C 98.07 80.43 *L 0.0016 *D NA2JIX0
*I *842:B I *C 92.61 80.43 *L 0.00284 *D EO3JIX0
*I *740:B I *C 103.11 85.05 *L 0.00164 *D AO22JIX0
*I *677:Q O *C 111.93 87.99 *L 0 *D SDFRRSJIX1

*CAP
1 *855:A 2.76553e-05
2 *848:A 5.28523e-05
3 *842:B 5.28523e-05
4 *740:B 2.47716e-05
5 *677:Q 5.28523e-05
6 *143:8 4.57139e-05
7 *143:9 0.000377577
8 *143:10 0.000188689
9 *143:11 0.000377577
10 *143:12 0.000211958
11 *143:13 0.000188689
12 *143:14 0.000291955
13 *143:15 8.50742e-05
14 *143:16 8.81187e-05
15 *143:17 0.000281498
16 *143:18 0.000281498
17 *143:19 0.00061962
18 *143:20 8.48662e-05
19 *143:21 8.21811e-05
20 *143:22 4.57139e-05
21 *143:23 0.00061962

*RES
1 *143:8 *842:B 9
2 *143:7 *143:8 0.256805
3 *143:9 *143:8 9
4 *143:9 *143:11 2.40244
5 *143:10 *848:A 9
6 *143:10 *143:11 9
7 *143:6 *143:10 0.256805
8 *143:10 *143:13 1.47835
9 *143:12 *143:13 9
10 *855:A *143:15 0.288803
11 *143:21 *740:B 0.288803
12 *143:12 *143:14 2.31001
13 *143:14 *143:15 0.577469
14 *143:20 *143:21 0.577469
15 *143:14 *143:16 0.577469
16 *143:16 *143:20 0.288803
17 *143:17 *143:16 9
18 *143:17 *143:18 1.84804
19 *143:19 *143:18 9
20 *143:19 *143:23 4.25034
21 *143:22 *143:23 9
22 *143:22 *677:Q 9
23 *143:5 *143:22 0.256805
*END

*D_NET *144 0.00378786

*CONN
*I *856:A I *C 90.108 84.84 *L 0.00577 *D EO2JIX1
*I *855:C I *C 99.75 85.05 *L 0.0033 *D ON211JIX1
*I *854:A I *C 93.45 85.05 *L 0.00153 *D AND2JIX0
*I *739:B I *C 93.87 87.99 *L 0.00164 *D AO22JIX0
*I *676:Q O *C 99.75 95.55 *L 0 *D SDFRRSJIX1

*CAP
1 *856:A 5.74077e-05
2 *855:C 2.57764e-05
3 *854:A 8.29861e-05
4 *739:B 5.28539e-05
5 *676:Q 5.28539e-05
6 *144:5 0.000229895
7 *144:6 0.000140403
8 *144:7 0.000376549
9 *144:8 0.00061787
10 *144:9 0.000121038
11 *144:10 0.000121038
12 *144:11 8.31935e-05
13 *144:12 0.000534837
14 *144:13 0.00051731
15 *144:14 0.000524541
16 *144:15 0.000128269
17 *144:16 0.000121038

*RES
1 *144:16 *676:Q 9
2 *144:15 *144:16 0.92395
3 *144:14 *144:15 0.184845
4 *144:10 *739:B 9
5 *144:11 *855:C 0.288803
6 *144:13 *144:14 3.32639
7 *144:9 *144:10 0.92395
8 *144:11 *144:12 0.577469
9 *144:12 *144:13 9
10 *144:6 *854:A 0.866272
11 *144:8 *144:9 9
12 *144:8 *144:12 3.75375
13 *144:6 *144:7 0.577469
14 *144:7 *144:8 1.15494
15 *144:5 *144:7 1.44374
16 *856:A *144:5 0.577469
*END

*D_NET *145 0.00232154

*CONN
*I *971:A I *C 106.89 24.57 *L 0.00164 *D INVJIX0
*I *959:A I *C 103.95 24.15 *L 0.00301 *D EO2JIX0
*I *926:Q O *C 94.71 23.73 *L 0 *D NA2JIX1

*CAP
1 *971:A 7.73431e-05
2 *959:A 5.2848e-05
3 *926:Q 4.07748e-05
4 *145:3 0.000638684
5 *145:4 9.81894e-05
6 *145:5 0.00076152
7 *145:6 0.000115062
8 *145:7 0.000115062
9 *145:8 0.000258604
10 *145:9 0.000163459

*RES
1 *145:7 *959:A 9
2 *145:9 *971:A 0.866272
3 *145:6 *145:7 0.739243
4 *145:8 *145:9 0.866272
5 *145:5 *145:6 9
6 *145:5 *145:8 1.44374
7 *145:3 *145:5 5.19749
8 *145:3 *145:4 0.577469
9 *926:Q *145:4 0.577469
*END

*D_NET *146 0.00222162

*CONN
*I *965:A I *C 97.23 24.57 *L 0.0016 *D NA2JIX0
*I *964:A I *C 99.33 24.57 *L 0.00321 *D NO2JIX1
*I *963:B I *C 95.55 27.51 *L 0.00284 *D EN3JIX0
*I *927:Q O *C 90.09 24.99 *L 0 *D EO2JIX1

*CAP
1 *965:A 5.7412e-05
2 *964:A 5.28478e-05
3 *963:B 5.28478e-05
4 *927:Q 0.000210081
5 *146:4 0.000240392
6 *146:5 4.87379e-05
7 *146:6 5.6272e-05
8 *146:7 9.70304e-05
9 *146:8 0.000177791
10 *146:9 0.000274551
11 *146:10 0.000199241
12 *146:11 0.00028623
13 *146:12 0.000118938
14 *146:13 0.000111649
15 *146:14 5.06378e-05
16 *146:15 5.93293e-05
17 *146:16 0.00012763

*RES
1 *146:15 *964:A 9
2 *146:15 *146:16 0.369553
3 *146:12 *146:16 0.554398
4 *146:12 *146:14 0.184845
5 *146:13 *146:14 9
6 *965:A *146:11 0.577469
7 *146:11 *146:13 0.577469
8 *146:8 *146:11 1.15494
9 *146:10 *963:B 9
10 *146:9 *146:8 9
11 *146:9 *146:10 1.1088
12 *146:7 *146:9 0.739243
13 *146:6 *146:7 0.184845
14 *146:5 *146:6 0.184845
15 *146:4 *146:5 9
16 *927:Q *146:4 2.88748
*END

*D_NET *147 0.0021214

*CONN
*I *969:A I *C 97.65 39.69 *L 0.0032 *D NA2JIX1
*I *968:A I *C 93.03 39.69 *L 0.00159 *D NO2JIX0
*I *930:Q O *C 86.73 40.11 *L 0 *D EO2JIX0

*CAP
1 *969:A 5.75046e-05
2 *968:A 5.28559e-05
3 *930:Q 5.49057e-05
4 *147:3 8.36519e-05
5 *147:4 0.000433145
6 *147:5 9.74027e-05
7 *147:6 0.00079961
8 *147:7 9.74027e-05
9 *147:8 0.000444944

*RES
1 *147:5 *968:A 9
2 *147:5 *147:7 0.554398
3 *969:A *147:8 0.577469
4 *147:6 *147:7 9
5 *147:6 *147:8 3.17628
6 *147:4 *147:6 3.17628
7 *147:3 *147:4 0.288803
8 *930:Q *147:3 0.577469
*END

*D_NET *148 0.00126436

*CONN
*I *970:D I *C 93.45 46.83 *L 0.00167 *D SDFRRQJIX1
*I *933:Q O *C 85.05 46.41 *L 0 *D EN2JIX0

*CAP
1 *970:D 5.28531e-05
2 *933:Q 5.28531e-05
3 *148:4 4.57121e-05
4 *148:5 0.00053362
5 *148:6 4.57121e-05
6 *148:7 0.00053362

*RES
1 *148:3 *148:4 0.256805
2 *148:4 *933:Q 9
3 *148:5 *148:4 9
4 *148:5 *148:7 3.51123
5 *148:6 *970:D 9
6 *148:6 *148:7 9
7 *148:2 *148:6 0.256805
*END

*D_NET *149 0.00582411

*CONN
*I *947:Q O *C 100.17 49.77 *L 0 *D SDFRQJIX1
*I *907:B I *C 86.73 47.25 *L 0.00171 *D NA2JIX0
*I *905:B I *C 81.69 50.19 *L 0.00629 *D EO2JIX1
*I *902:B I *C 89.67 47.25 *L 0.00329 *D ON21JIX1
*I *667:SD I *C 69.51 50.61 *L 0.00147 *D SDFRRSJIX1

*CAP
1 *947:Q 5.28464e-05
2 *907:B 2.57859e-05
3 *905:B 5.28464e-05
4 *902:B 8.39399e-05
5 *667:SD 5.28464e-05
6 *149:8 4.56999e-05
7 *149:9 0.000870116
8 *149:10 4.78104e-05
9 *149:11 4.78104e-05
10 *149:12 0.00136943
11 *149:13 0.000300069
12 *149:14 0.000112024
13 *149:15 0.00024413
14 *149:16 7.86114e-05
15 *149:17 0.000356865
16 *149:18 0.000245154
17 *149:19 0.00114586
18 *149:20 4.56999e-05
19 *149:21 0.000646548

*RES
1 *149:14 *907:B 0.288803
2 *149:13 *149:14 0.866272
3 *149:13 *149:15 2.31001
4 *149:16 *149:15 9
5 *149:10 *905:B 9
6 *149:6 *149:10 0.0811615
7 *149:8 *667:SD 9
8 *149:7 *149:8 0.256805
9 *149:17 *902:B 9
10 *149:16 *149:17 0.554398
11 *149:10 *149:11 0.184845
12 *149:9 *149:8 9
13 *149:17 *149:18 1.84804
14 *149:12 *149:11 9
15 *149:9 *149:12 5.35927
16 *149:19 *149:18 9
17 *149:12 *149:19 3.51123
18 *149:19 *149:21 4.62003
19 *149:20 *149:21 9
20 *149:20 *947:Q 9
21 *149:5 *149:20 0.256805
*END

*D_NET *150 0.00885212

*CONN
*I *706:D I *C 82.11 110.25 *L 0.00168 *D AO22JIX0
*I *637:Q O *C 88.83 107.73 *L 0 *D SDFRRQJIX1
*I *632:SD I *C 57.33 107.31 *L 0.00147 *D SDFRRQJIX1
*I *575:B I *C 56.91 100.17 *L 0.00167 *D AN22JIX0

*CAP
1 *706:D 5.28438e-05
2 *637:Q 5.28438e-05
3 *632:SD 5.28438e-05
4 *575:B 5.28438e-05
5 *150:4 0.000211157
6 *150:5 0.000218488
7 *150:6 0.00037798
8 *150:7 0.000573122
9 *150:8 0.000216699
10 *150:9 0.00276437
11 *150:10 0.000114633
12 *150:11 0.00285972
13 *150:12 0.000114633
14 *150:13 0.000116859
15 *150:14 0.000337878
16 *150:15 0.00010656
17 *150:16 0.000337878
18 *150:17 9.57822e-05
19 *150:18 9.57822e-05
20 *150:19 9.92295e-05

*RES
1 *150:17 *637:Q 8.99993
2 *150:17 *150:18 0.554344
3 *150:19 *150:18 8.99993
4 *150:15 *150:19 0.554344
5 *150:15 *150:16 0.184837
6 *150:12 *706:D 8.99993
7 *150:14 *150:16 1.84803
8 *150:10 *150:12 0.554344
9 *150:13 *150:14 0.184837
10 *150:11 *150:10 8.99993
11 *150:11 *150:13 0.554344
12 *150:9 *150:11 10.9032001
13 *150:8 *150:9 8.99993
14 *150:7 *632:SD 8.99993
15 *150:7 *150:8 0.924017
16 *150:6 *150:7 2.03287
17 *150:5 *150:6 0.184837
18 *150:4 *150:5 0.924017
19 *575:B *150:4 8.99993
*END

*D_NET *151 0.00457324

*CONN
*I *705:D I *C 66.15 110.25 *L 0.00168 *D AO22JIX0
*I *636:Q O *C 68.67 103.11 *L 0 *D SDFRRQJIX1
*I *633:SD I *C 60.69 95.97 *L 0.00147 *D SDFRRQJIX1
*I *571:B I *C 59.43 100.17 *L 0.00167 *D AN22JIX0

*CAP
1 *705:D 5.28474e-05
2 *636:Q 5.28474e-05
3 *633:SD 8.39334e-05
4 *571:B 5.28474e-05
5 *151:4 0.000335902
6 *151:5 0.000468215
7 *151:6 0.000214175
8 *151:7 0.000439578
9 *151:8 0.000169349
10 *151:9 0.000578314
11 *151:10 0.00068895
12 *151:11 0.000615803
13 *151:12 0.000152676
14 *151:13 0.000115188
15 *151:14 0.000144518
16 *151:15 0.000263564
17 *151:16 0.000144518

*RES
1 *151:13 *705:D 9
2 *151:12 *151:13 0.92395
3 *151:16 *636:Q 9
4 *151:11 *151:12 0.369553
5 *151:14 *151:16 0.369553
6 *151:9 *151:11 2.58714
7 *151:15 *151:14 9
8 *151:10 *151:9 9
9 *151:10 *151:15 1.47835
10 *151:7 *151:10 2.58714
11 *151:6 *151:7 9
12 *151:8 *633:SD 9
13 *151:5 *571:B 9
14 *151:5 *151:6 1.1088
15 *151:4 *151:8 0.554398
16 *151:4 *151:5 1.47835
*END

*D_NET *152 0.0062217

*CONN
*I *704:D I *C 73.71 110.25 *L 0.00168 *D AO22JIX0
*I *637:SD I *C 80.01 107.31 *L 0.00147 *D SDFRRQJIX1
*I *635:Q O *C 77.91 107.73 *L 0 *D SDFRRQJIX1
*I *581:B I *C 67.83 100.17 *L 0.00167 *D AN22JIX0

*CAP
1 *704:D 5.28477e-05
2 *637:SD 5.28477e-05
3 *635:Q 5.28477e-05
4 *581:B 5.28477e-05
5 *152:4 0.00105928
6 *152:5 0.00105928
7 *152:6 0.000790561
8 *152:7 7.0407e-05
9 *152:8 0.00123869
10 *152:9 7.0407e-05
11 *152:10 0.000144235
12 *152:11 0.000144235
13 *152:12 0.000690499
14 *152:13 0.000250176
15 *152:14 0.000250176
16 *152:15 0.00024237

*RES
1 *152:13 *637:SD 9
2 *152:13 *152:14 0.92395
3 *152:10 *635:Q 9
4 *152:9 *704:D 9
5 *152:15 *152:14 9
6 *152:10 *152:11 0.739243
7 *152:7 *152:9 0.369553
8 *152:12 *152:15 0.92395
9 *152:12 *152:11 9
10 *152:8 *152:7 9
11 *152:8 *152:12 1.84804
12 *152:6 *152:8 2.58714
13 *152:5 *152:6 9
14 *152:4 *152:5 4.06563
15 *581:B *152:4 9
*END

*D_NET *153 0.00409148

*CONN
*I *703:D I *C 69.51 110.25 *L 0.00168 *D AO22JIX0
*I *635:SD I *C 69.09 107.31 *L 0.00147 *D SDFRRQJIX1
*I *634:Q O *C 79.59 103.11 *L 0 *D SDFRRQJIX1
*I *581:D I *C 69.51 100.17 *L 0.00167 *D AN22JIX0

*CAP
1 *703:D 5.28461e-05
2 *635:SD 5.28461e-05
3 *634:Q 5.28461e-05
4 *581:D 5.28461e-05
5 *153:5 0.000279513
6 *153:6 0.000527928
7 *153:7 0.00027725
8 *153:8 0.000301394
9 *153:9 0.000315804
10 *153:10 0.00096956
11 *153:11 7.34993e-05
12 *153:12 6.6176e-05
13 *153:13 4.96948e-05
14 *153:14 4.96948e-05
15 *153:15 0.00096956

*RES
1 *153:12 *703:D 9
2 *153:11 *153:12 0.184845
3 *153:7 *153:11 0.184845
4 *153:6 *635:SD 9
5 *153:6 *153:7 1.1088
6 *153:8 *581:D 9
7 *153:5 *153:6 1.47835
8 *153:8 *153:9 1.66319
9 *153:5 *153:9 0.184845
10 *153:10 *153:9 9
11 *153:10 *153:15 4.43518
12 *153:14 *153:15 9
13 *153:13 *153:14 0.184845
14 *153:13 *634:Q 9
15 *153:4 *153:13 0.0811615
*END

*D_NET *154 0.00683283

*CONN
*I *702:D I *C 66.57 100.59 *L 0.00168 *D AO22JIX0
*I *649:SD I *C 60.69 77.07 *L 0.00147 *D SDFRRQJIX1
*I *633:Q O *C 69.51 95.55 *L 0 *D SDFRRQJIX1
*I *575:D I *C 58.59 100.17 *L 0.00167 *D AN22JIX0

*CAP
1 *702:D 5.28621e-05
2 *649:SD 5.28621e-05
3 *633:Q 5.28621e-05
4 *575:D 5.28621e-05
5 *154:8 6.81877e-05
6 *154:9 6.81877e-05
7 *154:10 0.000564233
8 *154:11 4.57053e-05
9 *154:12 0.000272208
10 *154:13 0.00130263
11 *154:14 0.000272208
12 *154:15 0.00161733
13 *154:16 0.000421688
14 *154:17 0.000328895
15 *154:18 0.000848558
16 *154:19 4.57053e-05
17 *154:20 0.00029854
18 *154:21 4.57053e-05
19 *154:22 0.000421688

*RES
1 *154:11 *649:SD 9
2 *154:7 *154:11 0.256805
3 *154:12 *154:11 9
4 *154:6 *154:21 0.256805
5 *154:21 *633:Q 9
6 *154:12 *154:14 1.47835
7 *154:22 *154:21 9
8 *154:8 *575:D 9
9 *154:5 *154:8 0.0811615
10 *154:13 *154:14 9
11 *154:16 *154:22 2.40244
12 *154:8 *154:9 0.184845
13 *154:13 *154:15 8.13126
14 *154:15 *154:16 9
15 *154:10 *154:9 9
16 *154:15 *154:17 2.21759
17 *154:10 *154:18 2.40244
18 *154:18 *154:17 9
19 *154:18 *154:20 1.1088
20 *154:19 *702:D 9
21 *154:19 *154:20 9
22 *154:4 *154:19 0.256805
*END

*D_NET *155 0.00348239

*CONN
*I *701:D I *C 61.11 110.25 *L 0.00168 *D AO22JIX0
*I *636:SD I *C 59.85 103.53 *L 0.00147 *D SDFRRQJIX1
*I *632:Q O *C 66.15 107.73 *L 0 *D SDFRRQJIX1
*I *571:D I *C 61.11 100.17 *L 0.00167 *D AN22JIX0

*CAP
1 *701:D 5.28494e-05
2 *636:SD 5.28494e-05
3 *632:Q 5.28494e-05
4 *571:D 5.28494e-05
5 *155:5 0.00020204
6 *155:6 0.000316108
7 *155:7 7.65822e-05
8 *155:8 8.33868e-05
9 *155:9 5.32157e-05
10 *155:10 4.97191e-05
11 *155:11 8.72054e-05
12 *155:12 0.000427502
13 *155:13 0.00072747
14 *155:14 0.000377816
15 *155:15 0.000381834
16 *155:16 5.51361e-05
17 *155:17 0.000377816
18 *155:18 5.51361e-05

*RES
1 *155:10 *571:D 9
2 *155:10 *155:11 0.184845
3 *155:8 *155:11 0.369553
4 *155:8 *155:9 0.184845
5 *155:5 *155:9 0.184845
6 *155:7 *636:SD 9
7 *155:5 *155:6 0.739243
8 *155:6 *155:7 0.369553
9 *155:6 *155:12 0.554398
10 *155:15 *701:D 9
11 *155:12 *155:13 1.84804
12 *155:13 *155:15 1.47835
13 *155:14 *155:13 9
14 *155:14 *155:17 2.21759
15 *155:18 *632:Q 9
16 *155:16 *155:17 9
17 *155:16 *155:18 0.184845
18 *155:4 *155:16 0.0811615
*END

*D_NET *156 0.004131

*CONN
*I *700:D I *C 57.75 102.69 *L 0.00168 *D AO22JIX0
*I *631:Q O *C 54.81 103.11 *L 0 *D SDFRRQJIX1
*I *629:SD I *C 46.41 95.97 *L 0.00147 *D SDFRRQJIX1
*I *559:B I *C 54.39 100.17 *L 0.00167 *D AN22JIX0

*CAP
1 *700:D 2.87546e-05
2 *631:Q 8.78098e-05
3 *629:SD 5.28564e-05
4 *559:B 5.28564e-05
5 *156:4 0.000163453
6 *156:5 0.000163453
7 *156:6 0.00094695
8 *156:7 0.000265207
9 *156:8 0.00094695
10 *156:9 0.000451981
11 *156:10 0.000208276
12 *156:11 8.48765e-05
13 *156:12 0.000314378
14 *156:13 7.75651e-05
15 *156:14 0.000285624

*RES
1 *156:14 *700:D 0.288803
2 *156:12 *156:14 2.02121
3 *156:12 *631:Q 0.577469
4 *156:13 *631:Q 9
5 *156:11 *156:13 0.554398
6 *156:10 *156:11 0.184845
7 *156:9 *559:B 9
8 *156:9 *156:10 0.92395
9 *156:7 *156:9 0.92395
10 *156:8 *156:7 9
11 *156:6 *156:8 3.51123
12 *156:5 *156:6 9
13 *156:4 *156:5 0.554398
14 *629:SD *156:4 9
*END

*D_NET *157 0.00270763

*CONN
*I *699:D I *C 53.55 100.59 *L 0.00168 *D AO22JIX0
*I *646:SD I *C 58.59 92.19 *L 0.00147 *D SDFRRQJIX1
*I *630:Q O *C 56.49 92.61 *L 0 *D SDFRRQJIX1
*I *559:D I *C 56.07 100.17 *L 0.00167 *D AN22JIX0

*CAP
1 *699:D 5.36056e-05
2 *646:SD 5.2846e-05
3 *630:Q 5.2846e-05
4 *559:D 0.000110355
5 *157:4 8.23543e-05
6 *157:5 0.000170727
7 *157:6 6.09915e-05
8 *157:7 5.36758e-05
9 *157:8 0.000199476
10 *157:9 8.19803e-05
11 *157:10 0.00076587
12 *157:11 0.000586039
13 *157:12 0.000154413
14 *157:13 0.000282438

*RES
1 *157:12 *646:SD 9
2 *157:9 *630:Q 9
3 *157:12 *157:13 0.554398
4 *157:9 *157:10 0.369553
5 *157:10 *157:13 0.92395
6 *157:10 *157:11 2.58714
7 *157:6 *157:11 0.184845
8 *157:6 *157:7 0.184845
9 *559:D *157:7 9
10 *559:D *157:8 0.577469
11 *157:5 *157:8 1.15494
12 *157:4 *157:5 0.288803
13 *699:D *157:4 0.577469
*END

*D_NET *158 0.00533481

*CONN
*I *730:D I *C 38.43 77.91 *L 0.00168 *D AO22JIX0
*I *613:Q O *C 45.99 72.87 *L 0 *D SDFRRQJIX1
*I *611:SD I *C 38.01 65.73 *L 0.00147 *D SDFRRQJIX1
*I *560:B I *C 40.53 57.75 *L 0.00167 *D AN22JIX0

*CAP
1 *730:D 5.28518e-05
2 *613:Q 5.28518e-05
3 *611:SD 5.28518e-05
4 *560:B 5.28518e-05
5 *158:4 0.000220593
6 *158:5 0.000220593
7 *158:6 7.67345e-05
8 *158:7 0.000226351
9 *158:8 8.20402e-05
10 *158:9 8.09845e-05
11 *158:10 8.08886e-05
12 *158:11 0.000117617
13 *158:12 0.000315932
14 *158:13 0.000116795
15 *158:14 0.000219825
16 *158:15 0.000838115
17 *158:16 0.00089848
18 *158:17 0.000123993
19 *158:18 0.000258185
20 *158:19 5.05211e-05
21 *158:20 8.8004e-05
22 *158:21 0.000316041
23 *158:22 0.000258185
24 *158:23 0.000112325
25 *158:24 0.000112325
26 *158:25 0.000308843

*RES
1 *158:23 *613:Q 9
2 *158:23 *158:24 0.369553
3 *158:25 *158:24 9
4 *158:21 *158:25 1.29364
5 *158:21 *158:22 0.184845
6 *158:18 *158:22 1.47835
7 *158:17 *158:18 0.184845
8 *158:19 *560:B 9
9 *158:14 *730:D 9
10 *158:13 *158:17 0.554398
11 *158:19 *158:20 0.184845
12 *158:12 *158:14 1.47835
13 *158:12 *158:13 9
14 *158:15 *158:20 0.369553
15 *158:11 *158:12 0.554398
16 *158:6 *611:SD 9
17 *158:15 *158:16 3.88078
18 *158:10 *158:11 0.184845
19 *158:6 *158:7 0.554398
20 *158:7 *158:16 0.739243
21 *158:9 *158:10 0.554398
22 *158:7 *158:8 0.369553
23 *158:5 *158:9 0.184845
24 *158:4 *158:8 0.184845
25 *158:4 *158:5 1.47835
*END

*D_NET *159 0.00428916

*CONN
*I *729:D I *C 24.99 70.35 *L 0.00168 *D AO22JIX0
*I *614:SD I *C 25.41 73.29 *L 0.00147 *D SDFRRQJIX1
*I *612:Q O *C 35.91 69.93 *L 0 *D SDFRRQJIX1
*I *574:B I *C 37.59 57.75 *L 0.00167 *D AN22JIX0

*CAP
1 *729:D 5.28454e-05
2 *614:SD 5.28454e-05
3 *612:Q 5.28454e-05
4 *574:B 5.28454e-05
5 *159:6 5.05169e-05
6 *159:7 5.8054e-05
7 *159:8 5.34337e-05
8 *159:9 0.000192104
9 *159:10 0.000695619
10 *159:11 0.000160399
11 *159:12 0.000154075
12 *159:13 0.000154075
13 *159:14 0.000771578
14 *159:15 4.57128e-05
15 *159:16 4.57128e-05
16 *159:17 0.00080316
17 *159:18 9.0151e-05
18 *159:19 0.00080316

*RES
1 *159:6 *729:D 9
2 *159:6 *159:7 0.184845
3 *159:7 *159:8 0.184845
4 *159:11 *614:SD 9
5 *159:8 *159:9 0.184845
6 *159:9 *159:11 0.92395
7 *159:12 *612:Q 9
8 *159:10 *159:9 9
9 *159:12 *159:13 0.554398
10 *159:10 *159:14 4.62003
11 *159:14 *159:13 9
12 *159:14 *159:18 0.739243
13 *159:19 *159:18 9
14 *159:15 *574:B 9
15 *159:5 *159:15 0.256805
16 *159:17 *159:19 5.72882
17 *159:16 *159:15 9
18 *159:16 *159:17 9
19 *159:4 *159:16 0.256805
*END

*D_NET *160 0.00349496

*CONN
*I *728:D I *C 35.91 64.89 *L 0.00168 *D AO22JIX0
*I *611:Q O *C 46.83 65.31 *L 0 *D SDFRRQJIX1
*I *609:SD I *C 40.53 61.95 *L 0.00147 *D SDFRRQJIX1
*I *582:B I *C 36.75 62.37 *L 0.00167 *D AN22JIX0

*CAP
1 *728:D 5.28506e-05
2 *611:Q 5.28506e-05
3 *609:SD 5.28506e-05
4 *582:B 5.74041e-05
5 *160:5 0.000172324
6 *160:6 0.000458586
7 *160:7 0.000179851
8 *160:8 5.53264e-05
9 *160:9 9.92939e-05
10 *160:10 0.000142465
11 *160:11 0.000108861
12 *160:12 0.000126404
13 *160:13 6.93602e-05
14 *160:14 0.00081534
15 *160:15 6.93602e-05
16 *160:16 0.000378128
17 *160:17 7.75092e-05
18 *160:18 0.000227924
19 *160:19 7.03182e-05
20 *160:20 0.000227924

*RES
1 *582:B *160:12 0.577469
2 *160:9 *160:12 0.577469
3 *160:11 *728:D 9
4 *160:10 *160:9 9
5 *160:10 *160:11 0.739243
6 *160:20 *611:Q 9
7 *160:8 *160:10 0.184845
8 *160:18 *160:20 1.66319
9 *160:7 *160:8 0.184845
10 *160:19 *160:18 9
11 *160:5 *160:7 0.739243
12 *160:17 *160:19 0.369553
13 *160:6 *160:5 9
14 *160:16 *160:17 0.184845
15 *160:15 *609:SD 9
16 *160:6 *160:14 2.21759
17 *160:14 *160:16 2.40244
18 *160:13 *160:15 0.184845
19 *160:13 *160:14 9
20 *160:4 *160:13 0.0811615
*END

*D_NET *161 0.00354974

*CONN
*I *727:D I *C 24.99 62.79 *L 0.00168 *D AO22JIX0
*I *612:SD I *C 27.09 69.51 *L 0.00147 *D SDFRRQJIX1
*I *610:Q O *C 32.97 65.31 *L 0 *D SDFRRQJIX1
*I *582:D I *C 38.43 62.37 *L 0.00167 *D AN22JIX0

*CAP
1 *727:D 5.2851e-05
2 *612:SD 5.2851e-05
3 *610:Q 5.2851e-05
4 *582:D 5.2851e-05
5 *161:4 5.05202e-05
6 *161:5 0.000179591
7 *161:6 0.000241033
8 *161:7 0.000399927
9 *161:8 0.000410226
10 *161:9 0.000302157
11 *161:10 7.72568e-05
12 *161:11 0.00079972
13 *161:12 7.72568e-05
14 *161:13 0.000198481
15 *161:14 0.000198481
16 *161:15 0.000403686

*RES
1 *161:13 *582:D 9
2 *161:13 *161:14 0.92395
3 *161:12 *610:Q 9
4 *161:15 *161:14 9
5 *161:10 *161:12 0.369553
6 *161:11 *161:15 2.40244
7 *161:11 *161:10 9
8 *161:9 *612:SD 9
9 *161:8 *161:11 2.58714
10 *161:7 *161:9 2.03275
11 *161:7 *161:8 9
12 *161:6 *161:7 0.554398
13 *161:5 *161:6 0.92395
14 *161:4 *161:5 0.184845
15 *727:D *161:4 9
*END

*D_NET *162 0.00595344

*CONN
*I *726:D I *C 33.81 57.33 *L 0.00168 *D AO22JIX0
*I *609:Q O *C 49.35 62.37 *L 0 *D SDFRRQJIX1
*I *608:SD I *C 27.09 61.95 *L 0.00147 *D SDFRRQJIX1
*I *560:D I *C 42.21 57.75 *L 0.00167 *D AN22JIX0

*CAP
1 *726:D 2.87125e-05
2 *609:Q 5.28513e-05
3 *608:SD 5.28513e-05
4 *560:D 5.28513e-05
5 *162:4 0.000112798
6 *162:5 0.00042412
7 *162:6 0.00042412
8 *162:7 0.000522336
9 *162:8 0.000139898
10 *162:9 0.000562629
11 *162:10 9.93013e-05
12 *162:11 0.000404457
13 *162:12 0.000404457
14 *162:13 0.000547355
15 *162:14 0.000168346
16 *162:15 0.000168346
17 *162:16 0.00064046
18 *162:17 0.000229954
19 *162:18 0.000114488
20 *162:19 0.000229954
21 *162:20 0.000101246
22 *162:21 0.000101246
23 *162:22 8.55413e-05
24 *162:23 0.000103377
25 *162:24 7.83485e-05
26 *162:25 0.000103377

*RES
1 *162:25 *609:Q 9
2 *162:23 *162:25 0.554398
3 *162:24 *162:23 9
4 *162:22 *162:24 0.554398
5 *162:21 *162:22 0.184845
6 *162:20 *162:21 0.554398
7 *162:19 *162:20 0.184845
8 *162:14 *560:D 9
9 *162:17 *162:19 1.47835
10 *162:14 *162:15 0.92395
11 *162:17 *162:18 0.184845
12 *162:16 *162:15 9
13 *162:16 *162:18 0.554398
14 *162:13 *162:16 3.32639
15 *162:12 *162:13 9
16 *162:11 *162:12 1.47835
17 *162:10 *162:11 9
18 *162:9 *726:D 0.288803
19 *162:9 *162:10 0.577469
20 *162:6 *608:SD 9
21 *162:7 *162:9 3.75375
22 *162:5 *162:6 1.66319
23 *162:7 *162:8 0.577469
24 *162:4 *162:5 9
25 *162:4 *162:8 0.866272
*END

*D_NET *163 0.00373991

*CONN
*I *725:D I *C 25.83 57.33 *L 0.00168 *D AO22JIX0
*I *608:Q O *C 35.91 62.37 *L 0 *D SDFRRQJIX1
*I *598:SD I *C 25.41 54.39 *L 0.00147 *D SDFRRQJIX1
*I *574:D I *C 39.27 57.75 *L 0.00167 *D AN22JIX0

*CAP
1 *725:D 5.28467e-05
2 *608:Q 5.28467e-05
3 *598:SD 5.28467e-05
4 *574:D 5.28467e-05
5 *163:5 0.000206324
6 *163:6 0.000213855
7 *163:7 7.23124e-05
8 *163:8 9.83977e-05
9 *163:9 4.77995e-05
10 *163:10 0.000725451
11 *163:11 0.00103044
12 *163:12 0.000200538
13 *163:13 9.07246e-05
14 *163:14 0.00021516
15 *163:15 0.000149704
16 *163:16 0.000142172
17 *163:17 4.57082e-05
18 *163:18 0.000289941

*RES
1 *163:5 *598:SD 9
2 *163:5 *163:6 0.92395
3 *163:16 *608:Q 9
4 *163:6 *163:7 0.184845
5 *163:15 *163:16 0.739243
6 *163:8 *725:D 9
7 *163:7 *163:8 0.369553
8 *163:14 *163:15 0.184845
9 *163:8 *163:9 0.184845
10 *163:12 *163:14 0.739243
11 *163:10 *163:9 9
12 *163:13 *163:12 9
13 *163:10 *163:11 4.25034
14 *163:11 *163:13 0.369553
15 *163:11 *163:18 1.66319
16 *163:17 *574:D 9
17 *163:17 *163:18 9
18 *163:4 *163:17 0.256805
*END

*D_NET *164 0.00354562

*CONN
*I *724:D I *C 24.99 49.77 *L 0.00168 *D AO22JIX0
*I *607:Q O *C 35.91 47.25 *L 0 *D SDFRRQJIX1
*I *606:SD I *C 24.57 43.05 *L 0.00147 *D SDFRRQJIX1
*I *568:B I *C 29.61 50.19 *L 0.00167 *D AN22JIX0

*CAP
1 *724:D 5.2848e-05
2 *607:Q 5.2848e-05
3 *606:SD 5.2848e-05
4 *568:B 5.2848e-05
5 *164:5 0.00044812
6 *164:6 0.00045565
7 *164:7 0.000170913
8 *164:8 0.000199711
9 *164:9 5.05189e-05
10 *164:10 0.000251079
11 *164:11 0.00044835
12 *164:12 0.000318847
13 *164:13 4.57075e-05
14 *164:14 5.27229e-05
15 *164:15 0.00024108
16 *164:16 0.00024108
17 *164:17 0.000410443

*RES
1 *164:5 *606:SD 9
2 *164:5 *164:6 2.03275
3 *164:6 *164:7 0.184845
4 *164:15 *607:Q 9
5 *164:8 *724:D 9
6 *164:7 *164:8 0.739243
7 *164:15 *164:16 0.92395
8 *164:8 *164:9 0.184845
9 *164:17 *164:16 9
10 *164:10 *164:9 9
11 *164:11 *164:17 2.95683
12 *164:10 *164:12 1.84804
13 *164:11 *164:12 0.369553
14 *164:12 *164:14 0.184845
15 *164:13 *568:B 9
16 *164:13 *164:14 9
17 *164:4 *164:13 0.256805
*END

*D_NET *165 0.00400036

*CONN
*I *722:D I *C 24.99 47.67 *L 0.00168 *D AO22JIX0
*I *606:Q O *C 33.39 42.63 *L 0 *D SDFRRQJIX1
*I *603:SD I *C 24.99 39.27 *L 0.00147 *D SDFRRQJIX1
*I *568:D I *C 31.29 50.19 *L 0.00167 *D AN22JIX0

*CAP
1 *722:D 5.2847e-05
2 *606:Q 5.2847e-05
3 *603:SD 5.2847e-05
4 *568:D 2.95374e-05
5 *165:5 0.000246023
6 *165:6 0.000253552
7 *165:7 0.000182404
8 *165:8 0.000174867
9 *165:9 8.02787e-05
10 *165:10 0.000274739
11 *165:11 0.000434817
12 *165:12 0.000223714
13 *165:13 6.58311e-05
14 *165:14 5.82537e-05
15 *165:15 0.000487014
16 *165:16 0.00053282
17 *165:17 6.74328e-05
18 *165:18 0.000487014
19 *165:19 6.56685e-05
20 *165:20 6.56685e-05
21 *165:21 0.00011219

*RES
1 *568:D *165:14 0.288803
2 *165:5 *603:SD 9
3 *165:8 *722:D 9
4 *165:13 *165:14 0.288803
5 *165:5 *165:6 1.47835
6 *165:7 *165:8 0.739243
7 *165:13 *165:17 0.288803
8 *165:6 *165:9 0.184845
9 *165:7 *165:12 0.184845
10 *165:18 *165:17 9
11 *165:9 *165:10 0.369553
12 *165:10 *165:12 0.92395
13 *165:15 *165:18 2.77199
14 *165:11 *165:10 9
15 *165:16 *165:15 9
16 *165:11 *165:16 2.95683
17 *165:16 *165:21 0.554398
18 *165:20 *165:21 9
19 *165:19 *165:20 0.184845
20 *165:19 *606:Q 9
21 *165:4 *165:19 0.0811615
*END

*D_NET *166 0.00344564

*CONN
*I *698:D I *C 50.61 100.59 *L 0.00168 *D AO22JIX0
*I *630:SD I *C 47.67 92.19 *L 0.00147 *D SDFRRQJIX1
*I *629:Q O *C 55.23 95.55 *L 0 *D SDFRRQJIX1
*I *563:B I *C 45.99 100.17 *L 0.00167 *D AN22JIX0

*CAP
1 *698:D 8.62484e-05
2 *630:SD 5.28518e-05
3 *629:Q 5.28518e-05
4 *563:B 2.87495e-05
5 *166:5 0.000369648
6 *166:6 5.60879e-05
7 *166:7 0.000241621
8 *166:8 5.45312e-05
9 *166:9 0.000218524
10 *166:10 0.000374211
11 *166:11 5.05206e-05
12 *166:12 0.000167551
13 *166:13 0.000280263
14 *166:14 0.00050256
15 *166:15 9.22683e-05
16 *166:16 0.000280263
17 *166:17 0.000141991
18 *166:18 4.57124e-05
19 *166:19 0.000349196

*RES
1 *166:8 *563:B 0.288803
2 *166:6 *166:8 0.288803
3 *166:7 *166:6 9
4 *166:17 *698:D 0.866272
5 *166:9 *630:SD 9
6 *166:5 *166:7 1.84804
7 *166:15 *166:17 0.577469
8 *166:9 *166:10 1.29364
9 *166:5 *166:10 0.92395
10 *166:16 *166:15 9
11 *166:10 *166:11 0.184845
12 *166:13 *166:16 1.47835
13 *166:12 *166:11 9
14 *166:14 *166:13 9
15 *166:12 *166:14 0.92395
16 *166:14 *166:19 2.40244
17 *166:18 *166:19 9
18 *166:18 *629:Q 9
19 *166:4 *166:18 0.256805
*END

*D_NET *167 0.00330504

*CONN
*I *697:D I *C 40.95 110.25 *L 0.00168 *D AO22JIX0
*I *628:Q O *C 44.31 107.73 *L 0 *D SDFRRQJIX1
*I *625:SD I *C 46.41 107.31 *L 0.00147 *D SDFRRQJIX1
*I *566:B I *C 43.05 100.17 *L 0.00167 *D AN22JIX0

*CAP
1 *697:D 0.000211559
2 *628:Q 5.28528e-05
3 *625:SD 5.28528e-05
4 *566:B 5.28528e-05
5 *167:5 0.000684732
6 *167:6 0.00069205
7 *167:7 9.47444e-05
8 *167:8 0.000124914
9 *167:9 8.29277e-05
10 *167:10 0.0002638
11 *167:11 0.000221728
12 *167:12 0.000241866
13 *167:13 0.000124175
14 *167:14 7.00973e-05
15 *167:15 7.00973e-05
16 *167:16 0.0002638

*RES
1 *167:5 *566:B 9
2 *167:5 *167:6 3.32639
3 *167:6 *167:7 0.184845
4 *697:D *167:12 2.31001
5 *167:7 *167:8 0.369553
6 *167:13 *167:12 9
7 *167:8 *167:11 0.369553
8 *167:11 *167:13 0.739243
9 *167:9 *167:11 0.369553
10 *167:9 *628:Q 9
11 *167:10 *167:9 9
12 *167:10 *167:16 0.92395
13 *167:15 *167:16 9
14 *167:14 *625:SD 9
15 *167:14 *167:15 0.184845
16 *167:4 *167:14 0.0811615
*END

*D_NET *168 0.00438729

*CONN
*I *696:D I *C 30.87 110.25 *L 0.00168 *D AO22JIX0
*I *627:Q O *C 33.39 107.73 *L 0 *D SDFRRQJIX1
*I *626:SD I *C 24.15 103.53 *L 0.00147 *D SDFRRQJIX1
*I *579:B I *C 38.01 100.17 *L 0.00167 *D AN22JIX0

*CAP
1 *696:D 5.28566e-05
2 *627:Q 8.61205e-05
3 *626:SD 5.28566e-05
4 *579:B 5.28566e-05
5 *168:4 0.00019288
6 *168:5 0.00018578
7 *168:6 0.000464834
8 *168:7 5.71752e-05
9 *168:8 0.00086816
10 *168:9 0.000246015
11 *168:10 0.000332056
12 *168:11 0.000289069
13 *168:12 0.000301826
14 *168:13 0.000390106
15 *168:14 0.000390106
16 *168:15 0.000424602

*RES
1 *168:12 *627:Q 0.866272
2 *168:13 *579:B 9
3 *168:11 *696:D 9
4 *168:9 *168:12 1.73254
5 *168:13 *168:14 2.40244
6 *168:10 *168:11 1.84804
7 *168:10 *168:9 9
8 *168:15 *168:14 9
9 *168:7 *168:10 0.184845
10 *168:8 *168:15 3.14154
11 *168:8 *168:7 9
12 *168:6 *168:8 2.95683
13 *168:5 *168:6 9
14 *168:4 *168:5 0.739243
15 *626:SD *168:4 9
*END

*D_NET *169 0.00406576

*CONN
*I *687:D I *C 27.09 110.25 *L 0.00168 *D AO22JIX0
*I *626:Q O *C 32.97 103.11 *L 0 *D SDFRRQJIX1
*I *623:SD I *C 27.09 99.75 *L 0.00147 *D SDFRRQJIX1
*I *579:D I *C 39.69 100.17 *L 0.00167 *D AN22JIX0

*CAP
1 *687:D 5.28501e-05
2 *626:Q 5.28501e-05
3 *623:SD 5.28501e-05
4 *579:D 5.28501e-05
5 *169:4 0.000184492
6 *169:5 0.000706948
7 *169:6 0.000391714
8 *169:7 0.000536656
9 *169:8 7.37e-05
10 *169:9 0.00088041
11 *169:10 7.37e-05
12 *169:11 0.000251931
13 *169:12 0.000251931
14 *169:13 0.000502896

*RES
1 *169:11 *579:D 9
2 *169:11 *169:12 0.92395
3 *169:10 *626:Q 9
4 *169:13 *169:12 9
5 *169:8 *169:10 0.369553
6 *169:9 *169:13 2.95683
7 *169:9 *169:8 9
8 *169:7 *687:D 9
9 *169:6 *169:9 2.58714
10 *169:5 *169:7 3.51123
11 *169:5 *169:6 9
12 *169:4 *169:5 1.1088
13 *623:SD *169:4 9
*END

*D_NET *170 0.0039142

*CONN
*I *693:D I *C 50.61 110.25 *L 0.00168 *D AO22JIX0
*I *631:SD I *C 45.99 103.53 *L 0.00147 *D SDFRRQJIX1
*I *625:Q O *C 55.23 107.73 *L 0 *D SDFRRQJIX1
*I *563:D I *C 47.67 100.17 *L 0.00167 *D AN22JIX0

*CAP
1 *693:D 2.87471e-05
2 *631:SD 5.28507e-05
3 *625:Q 5.28507e-05
4 *563:D 5.75027e-05
5 *170:4 0.000233709
6 *170:5 0.000148464
7 *170:6 0.000551758
8 *170:7 0.000456452
9 *170:8 0.000418844
10 *170:9 6.01269e-05
11 *170:10 0.000254677
12 *170:11 0.00055837
13 *170:12 0.00031045
14 *170:13 0.00027596
15 *170:14 0.000177066
16 *170:15 9.93027e-05
17 *170:16 0.000177066

*RES
1 *170:14 *625:Q 9
2 *170:14 *170:16 0.92395
3 *170:15 *170:16 9
4 *170:13 *170:15 0.577469
5 *170:12 *170:13 1.73254
6 *170:11 *693:D 0.288803
7 *170:11 *170:12 0.866272
8 *170:7 *170:11 3.46495
9 *170:9 *631:SD 9
10 *170:8 *170:7 9
11 *170:6 *170:9 0.184845
12 *170:6 *170:8 2.77199
13 *563:D *170:10 0.577469
14 *170:5 *170:6 1.1088
15 *170:4 *170:10 1.44374
16 *170:4 *170:5 9
*END

*D_NET *171 0.00411253

*CONN
*I *692:D I *C 35.91 110.25 *L 0.00168 *D AO22JIX0
*I *628:SD I *C 35.49 107.31 *L 0.00147 *D SDFRRQJIX1
*I *624:Q O *C 43.89 103.11 *L 0 *D SDFRRQJIX1
*I *566:D I *C 44.73 100.17 *L 0.00167 *D AN22JIX0

*CAP
1 *692:D 0.000123388
2 *628:SD 5.28532e-05
3 *624:Q 5.28532e-05
4 *566:D 5.75043e-05
5 *171:5 4.57132e-05
6 *171:6 0.000242817
7 *171:7 0.000212652
8 *171:8 0.000420577
9 *171:9 0.000153697
10 *171:10 0.000212652
11 *171:11 0.000260336
12 *171:12 0.000200112
13 *171:13 0.000260336
14 *171:14 0.000162231
15 *171:15 9.99118e-05
16 *171:16 0.000198959
17 *171:17 0.00062977
18 *171:18 0.000445005
19 *171:19 0.000154072
20 *171:20 0.000127098

*RES
1 *566:D *171:20 0.577469
2 *171:15 *171:20 0.577469
3 *171:16 *171:15 9
4 *171:16 *171:17 0.92395
5 *171:17 *624:Q 9
6 *171:17 *171:18 1.66319
7 *171:19 *171:18 9
8 *171:14 *171:19 0.554398
9 *692:D *171:9 1.15494
10 *171:13 *171:14 0.184845
11 *171:10 *171:9 9
12 *171:11 *171:13 1.47835
13 *171:7 *171:10 1.66319
14 *171:11 *171:12 0.184845
15 *171:8 *171:7 9
16 *171:8 *171:12 0.739243
17 *171:6 *171:8 0.92395
18 *171:5 *628:SD 9
19 *171:5 *171:6 9
20 *171:4 *171:5 0.0439453
*END

*D_NET *172 0.00346554

*CONN
*I *691:D I *C 24.99 100.59 *L 0.00168 *D AO22JIX0
*I *624:SD I *C 35.07 103.53 *L 0.00147 *D SDFRRQJIX1
*I *623:Q O *C 35.91 100.17 *L 0 *D SDFRRQJIX1
*I *561:B I *C 36.75 95.55 *L 0.00167 *D AN22JIX0

*CAP
1 *691:D 5.28485e-05
2 *624:SD 5.28485e-05
3 *623:Q 5.28485e-05
4 *561:B 5.28485e-05
5 *172:5 8.0891e-05
6 *172:6 0.000228743
7 *172:7 8.0891e-05
8 *172:8 0.00022081
9 *172:9 0.000236271
10 *172:10 0.00022081
11 *172:11 0.00026139
12 *172:12 0.000283429
13 *172:13 0.000246192
14 *172:14 0.000113548
15 *172:15 0.000109918
16 *172:16 0.000253862
17 *172:17 0.00014461
18 *172:18 0.00014824
19 *172:19 0.000293648
20 *172:20 0.00033089

*RES
1 *172:7 *691:D 9
2 *172:5 *172:7 0.369553
3 *172:6 *172:5 9
4 *172:6 *172:9 1.47835
5 *172:8 *172:9 0.184845
6 *172:13 *624:SD 9
7 *172:19 *561:B 9
8 *172:8 *172:10 1.66319
9 *172:12 *172:13 0.92395
10 *172:19 *172:20 1.1088
11 *172:10 *172:11 0.184845
12 *172:12 *172:18 0.369553
13 *172:14 *172:20 0.369553
14 *172:11 *172:16 1.66319
15 *172:17 *172:18 0.739243
16 *172:17 *623:Q 9
17 *172:14 *172:15 0.369553
18 *172:15 *172:16 9
19 *172:15 *172:17 0.184845
20 *172:4 *172:15 0.0811615
*END

*D_NET *173 0.00294381

*CONN
*I *689:D I *C 41.37 95.13 *L 0.00168 *D AO22JIX0
*I *622:Q O *C 45.57 92.61 *L 0 *D SDFRRQJIX1
*I *617:SD I *C 38.01 88.41 *L 0.00147 *D SDFRRQJIX1
*I *561:D I *C 38.43 95.55 *L 0.00167 *D AN22JIX0

*CAP
1 *689:D 2.87516e-05
2 *622:Q 5.28519e-05
3 *617:SD 5.28519e-05
4 *561:D 5.28519e-05
5 *173:4 0.000329477
6 *173:5 0.000336802
7 *173:6 0.000133881
8 *173:7 0.000213939
9 *173:8 7.27476e-05
10 *173:9 0.000211032
11 *173:10 8.3213e-05
12 *173:11 0.00046467
13 *173:12 0.000119027
14 *173:13 0.00028551
15 *173:14 5.13629e-05
16 *173:15 0.000193589
17 *173:16 0.00026126

*RES
1 *173:15 *622:Q 9
2 *173:15 *173:16 0.739243
3 *173:12 *173:16 0.554398
4 *173:12 *173:14 0.184845
5 *173:13 *173:14 9
6 *173:11 *689:D 0.288803
7 *173:11 *173:13 2.02121
8 *173:9 *173:11 1.44374
9 *173:8 *561:D 9
10 *173:10 *173:9 9
11 *173:7 *173:8 0.369553
12 *173:7 *173:10 0.369553
13 *173:6 *173:7 0.554398
14 *173:5 *173:6 0.184845
15 *173:4 *173:5 2.03275
16 *617:SD *173:4 9
*END

*D_NET *174 0.00828722

*CONN
*I *715:D I *C 108.15 110.25 *L 0.00168 *D AO22JIX0
*I *645:Q O *C 110.67 107.73 *L 0 *D SDFRRQJIX1
*I *644:SD I *C 103.95 99.75 *L 0.00147 *D SDFRRQJIX1
*I *562:B I *C 73.29 100.17 *L 0.00167 *D AN22JIX0

*CAP
1 *715:D 2.87144e-05
2 *645:Q 5.74133e-05
3 *644:SD 5.28451e-05
4 *562:B 5.28451e-05
5 *174:4 8.94529e-05
6 *174:5 0.00101097
7 *174:6 8.94529e-05
8 *174:7 0.00101829
9 *174:8 0.000389028
10 *174:9 0.000719073
11 *174:10 0.000389028
12 *174:11 7.81878e-05
13 *174:12 0.000711754
14 *174:13 0.000933545
15 *174:14 0.000434181
16 *174:15 0.000869544
17 *174:16 0.000676001
18 *174:17 9.18924e-05
19 *174:18 6.47939e-05
20 *174:19 0.000128236
21 *174:20 0.000273735
22 *174:21 0.000128236

*RES
1 *645:Q *174:17 0.577469
2 *174:17 *174:18 0.288803
3 *174:19 *174:18 9
4 *174:19 *174:21 0.554398
5 *174:20 *174:21 9
6 *174:16 *715:D 0.288803
7 *174:16 *174:20 2.02121
8 *174:14 *174:16 2.88748
9 *174:15 *174:14 9
10 *174:13 *644:SD 9
11 *174:13 *174:15 4.43518
12 *174:11 *174:13 0.369553
13 *174:12 *174:11 9
14 *174:9 *174:12 4.62003
15 *174:9 *174:10 0.184845
16 *174:8 *174:10 2.77199
17 *174:7 *174:8 0.184845
18 *174:6 *562:B 9
19 *174:5 *174:7 6.09837
20 *174:4 *174:6 0.369553
21 *174:4 *174:5 9
*END

*D_NET *175 0.0073632

*CONN
*I *713:D I *C 113.61 108.15 *L 0.00168 *D AO22JIX0
*I *644:Q O *C 112.77 100.17 *L 0 *D SDFRRQJIX1
*I *643:SD I *C 102.69 95.97 *L 0.00147 *D SDFRRQJIX1
*I *565:B I *C 80.43 103.11 *L 0.00167 *D AN22JIX0

*CAP
1 *713:D 5.28631e-05
2 *644:Q 5.28631e-05
3 *643:SD 5.28631e-05
4 *565:B 5.28631e-05
5 *175:4 8.24181e-05
6 *175:5 0.00149628
7 *175:6 8.24181e-05
8 *175:7 0.000678926
9 *175:8 0.000678926
10 *175:9 0.00172015
11 *175:10 0.000301692
12 *175:11 0.000245391
13 *175:12 0.000301692
14 *175:13 0.000104912
15 *175:14 0.000240535
16 *175:15 0.000295288
17 *175:16 9.75893e-05
18 *175:17 0.000106435
19 *175:18 0.00037831
20 *175:19 0.000340828

*RES
1 *175:19 *713:D 9.00007
2 *175:18 *175:19 2.03283
3 *175:14 *644:Q 9.00007
4 *175:17 *175:18 0.369592
5 *175:14 *175:15 0.924054
6 *175:15 *175:17 0.369592
7 *175:16 *175:15 9.00007
8 *175:13 *175:16 0.554462
9 *175:12 *175:13 0.18487
10 *175:7 *643:SD 9.00007
11 *175:10 *175:12 2.40242
12 *175:7 *175:8 2.58714
13 *175:10 *175:11 0.18487
14 *175:9 *175:8 9.00007
15 *175:9 *175:11 1.47837
16 *175:6 *565:B 9.00007
17 *175:5 *175:9 9.79440022
18 *175:4 *175:6 0.369592
19 *175:4 *175:5 9.00007
*END

*D_NET *176 0.00760205

*CONN
*I *712:D I *C 111.51 102.69 *L 0.00168 *D AO22JIX0
*I *643:Q O *C 111.51 95.55 *L 0 *D SDFRRQJIX1
*I *642:SD I *C 93.03 99.75 *L 0.00147 *D SDFRRQJIX1
*I *577:B I *C 74.97 95.55 *L 0.00167 *D AN22JIX0

*CAP
1 *712:D 5.49057e-05
2 *643:Q 5.2853e-05
3 *642:SD 5.2853e-05
4 *577:B 5.2853e-05
5 *176:5 4.57131e-05
6 *176:6 9.07836e-05
7 *176:7 0.000463289
8 *176:8 0.000128286
9 *176:9 0.000463289
10 *176:10 0.00038334
11 *176:11 0.000305962
12 *176:12 0.000353174
13 *176:13 0.000305962
14 *176:14 0.000134908
15 *176:15 0.000366204
16 *176:16 0.000228887
17 *176:17 0.000366204
18 *176:18 0.000122806
19 *176:19 5.56375e-05
20 *176:20 5.56375e-05
21 *176:21 0.00116978
22 *176:22 4.78015e-05
23 *176:23 0.000217177
24 *176:24 0.00116246
25 *176:25 0.00022089
26 *176:26 0.000326275
27 *176:27 8.52145e-05
28 *176:28 0.000288933

*RES
1 *712:D *176:27 0.577469
2 *176:28 *176:27 9
3 *176:26 *176:28 1.66319
4 *176:22 *643:Q 9
5 *176:25 *176:26 0.369553
6 *176:22 *176:23 0.184845
7 *176:23 *176:25 1.1088
8 *176:24 *176:23 9
9 *176:21 *176:24 7.20717
10 *176:20 *176:21 0.184845
11 *176:17 *642:SD 9
12 *176:19 *176:20 0.184845
13 *176:15 *176:17 1.66319
14 *176:18 *176:19 0.184845
15 *176:16 *176:15 9
16 *176:16 *176:18 0.739243
17 *176:14 *176:16 0.739243
18 *176:13 *176:14 0.184845
19 *176:11 *176:13 1.84804
20 *176:11 *176:12 0.184845
21 *176:10 *176:12 2.03275
22 *176:9 *176:10 0.369553
23 *176:7 *176:9 2.77199
24 *176:7 *176:8 0.369553
25 *176:6 *176:8 0.554398
26 *176:5 *577:B 9
27 *176:5 *176:6 9
28 *176:4 *176:5 0.256805
*END

*D_NET *177 0.00513328

*CONN
*I *711:D I *C 91.35 102.69 *L 0.00168 *D AO22JIX0
*I *676:SD I *C 90.51 95.97 *L 0.00147 *D SDFRRSJIX1
*I *642:Q O *C 101.85 100.17 *L 0 *D SDFRRQJIX1
*I *577:D I *C 76.65 95.55 *L 0.00167 *D AN22JIX0

*CAP
1 *711:D 5.28481e-05
2 *676:SD 5.28481e-05
3 *642:Q 5.28481e-05
4 *577:D 5.28481e-05
5 *177:6 4.57105e-05
6 *177:7 9.92252e-05
7 *177:8 0.000136706
8 *177:9 0.000642659
9 *177:10 0.000309755
10 *177:11 0.000642659
11 *177:12 0.000366925
12 *177:13 0.000272274
13 *177:14 0.000404257
14 *177:15 0.000181876
15 *177:16 0.00075324
16 *177:17 0.000137465
17 *177:18 8.79383e-05
18 *177:19 8.79383e-05
19 *177:20 0.00075324

*RES
1 *177:6 *577:D 9
2 *177:5 *177:6 0.256805
3 *177:7 *177:6 9
4 *177:18 *642:Q 9
5 *177:7 *177:8 0.554398
6 *177:18 *177:19 0.369553
7 *177:8 *177:9 0.369553
8 *177:20 *177:19 9
9 *177:9 *177:11 3.88078
10 *177:17 *711:D 9
11 *177:16 *177:20 4.62003
12 *177:10 *177:11 0.369553
13 *177:15 *177:17 0.739243
14 *177:15 *177:16 9
15 *177:10 *177:13 1.66319
16 *177:14 *177:15 0.369553
17 *177:12 *676:SD 9
18 *177:12 *177:13 9
19 *177:12 *177:14 2.21759
20 *177:4 *177:12 0.256805
*END

*D_NET *178 0.00576675

*CONN
*I *710:D I *C 101.85 110.25 *L 0.00168 *D AO22JIX0
*I *645:SD I *C 101.85 107.31 *L 0.00147 *D SDFRRQJIX1
*I *641:Q O *C 102.69 103.11 *L 0 *D SDFRRQJIX1
*I *562:D I *C 74.97 100.17 *L 0.00167 *D AN22JIX0

*CAP
1 *710:D 5.28493e-05
2 *645:SD 5.28493e-05
3 *641:Q 5.28493e-05
4 *562:D 5.40262e-05
5 *178:4 9.05636e-05
6 *178:5 0.000335789
7 *178:6 0.000335789
8 *178:7 0.00178653
9 *178:8 0.000242899
10 *178:9 0.00179362
11 *178:10 0.000423123
12 *178:11 0.000263261
13 *178:12 0.00012264
14 *178:13 0.000159971

*RES
1 *178:11 *710:D 9.00003
2 *178:12 *641:Q 9.00003
3 *178:10 *645:SD 9.00003
4 *178:10 *178:11 1.29356
5 *178:12 *178:13 0.739177
6 *178:8 *178:10 0.923972
7 *178:8 *178:13 0.369589
8 *178:9 *178:8 9.00003
9 *178:7 *178:9 11.4575996
10 *178:6 *178:7 9.00003
11 *178:5 *178:6 2.21753
12 *178:4 *178:5 9.00003
13 *562:D *178:4 0.577461
*END

*D_NET *179 0.00512887

*CONN
*I *709:D I *C 96.39 110.25 *L 0.00168 *D AO22JIX0
*I *641:SD I *C 93.87 103.53 *L 0.00147 *D SDFRRQJIX1
*I *640:Q O *C 99.75 107.73 *L 0 *D SDFRRQJIX1
*I *565:D I *C 82.11 103.11 *L 0.00167 *D AN22JIX0

*CAP
1 *709:D 5.28537e-05
2 *641:SD 5.28537e-05
3 *640:Q 8.61181e-05
4 *565:D 5.28537e-05
5 *179:6 4.57152e-05
6 *179:7 0.00126166
7 *179:8 4.57152e-05
8 *179:9 0.00135994
9 *179:10 0.000119777
10 *179:11 0.000163521
11 *179:12 0.000222704
12 *179:13 0.000156195
13 *179:14 0.00047697
14 *179:15 0.000269892
15 *179:16 0.000283879
16 *179:17 6.5678e-05
17 *179:18 7.28995e-05
18 *179:19 0.000339679

*RES
1 *179:19 *640:Q 0.866272
2 *179:16 *179:19 2.02121
3 *179:17 *179:16 9
4 *179:15 *709:D 9
5 *179:17 *179:18 0.184845
6 *179:14 *179:15 1.66319
7 *179:14 *179:18 0.184845
8 *179:12 *179:14 1.1088
9 *179:13 *179:12 9
10 *179:6 *565:D 9
11 *179:5 *179:6 0.256805
12 *179:11 *179:13 0.554398
13 *179:7 *179:6 9
14 *179:10 *179:11 0.184845
15 *179:7 *179:9 5.17442
16 *179:9 *179:10 0.554398
17 *179:8 *641:SD 9
18 *179:8 *179:9 9
19 *179:4 *179:8 0.256805
*END

*D_NET *180 0.00484132

*CONN
*I *708:D I *C 87.99 102.69 *L 0.00168 *D AO22JIX0
*I *639:Q O *C 88.41 95.55 *L 0 *D SDFRRQJIX1
*I *638:SD I *C 80.85 99.75 *L 0.00147 *D SDFRRQJIX1
*I *564:B I *C 70.77 100.17 *L 0.00167 *D AN22JIX0

*CAP
1 *708:D 5.28498e-05
2 *639:Q 8.61137e-05
3 *638:SD 5.28498e-05
4 *564:B 5.28498e-05
5 *180:5 4.97032e-05
6 *180:6 4.97032e-05
7 *180:7 0.000790965
8 *180:8 0.000107337
9 *180:9 0.000107337
10 *180:10 0.0010521
11 *180:11 0.000282647
12 *180:12 0.000160925
13 *180:13 0.000211207
14 *180:14 0.000271056
15 *180:15 0.000271056
16 *180:16 0.000337006
17 *180:17 0.000220518
18 *180:18 0.000197593
19 *180:19 0.000220518
20 *180:20 0.000267026

*RES
1 *639:Q *180:20 0.866272
2 *180:19 *708:D 9
3 *180:13 *180:20 1.44374
4 *180:17 *180:19 0.739243
5 *180:14 *180:13 9
6 *180:18 *180:17 9
7 *180:14 *180:15 1.66319
8 *180:16 *180:18 0.739243
9 *180:16 *180:15 9
10 *180:8 *638:SD 9
11 *180:12 *180:16 0.92395
12 *180:8 *180:9 0.369553
13 *180:11 *180:12 0.184845
14 *180:10 *180:9 9
15 *180:10 *180:11 1.47835
16 *180:7 *180:10 4.43518
17 *180:6 *180:7 9
18 *180:5 *564:B 9
19 *180:5 *180:6 0.184845
20 *180:4 *180:5 0.0811615
*END

*D_NET *181 0.00458446

*CONN
*I *707:D I *C 85.05 102.69 *L 0.00168 *D AO22JIX0
*I *640:SD I *C 90.93 107.31 *L 0.00147 *D SDFRRQJIX1
*I *638:Q O *C 89.67 100.17 *L 0 *D SDFRRQJIX1
*I *564:D I *C 72.45 100.17 *L 0.00167 *D AN22JIX0

*CAP
1 *707:D 5.28458e-05
2 *640:SD 5.28458e-05
3 *638:Q 5.28458e-05
4 *564:D 5.28458e-05
5 *181:4 7.8208e-05
6 *181:5 7.8208e-05
7 *181:6 9.8871e-05
8 *181:7 0.000107034
9 *181:8 0.000408481
10 *181:9 0.000475075
11 *181:10 0.000407635
12 *181:11 0.000123777
13 *181:12 0.00087989
14 *181:13 0.000123777
15 *181:14 0.000103208
16 *181:15 0.000172514
17 *181:16 0.000426324
18 *181:17 0.000150925
19 *181:18 0.000403285
20 *181:19 0.000335858

*RES
1 *181:19 *640:SD 9
2 *181:18 *181:19 2.03275
3 *181:14 *638:Q 9
4 *181:17 *181:18 0.554398
5 *181:13 *707:D 9
6 *181:14 *181:15 0.554398
7 *181:15 *181:17 0.369553
8 *181:11 *181:13 0.554398
9 *181:16 *181:15 9
10 *181:12 *181:11 9
11 *181:12 *181:16 2.03275
12 *181:9 *181:12 2.58714
13 *181:9 *181:10 0.184845
14 *181:8 *181:10 2.40244
15 *181:7 *181:8 0.184845
16 *181:6 *181:7 0.554398
17 *181:5 *181:6 9
18 *181:4 *181:5 0.554398
19 *564:D *181:4 9
*END

*D_NET *182 0.00349876

*CONN
*I *721:D I *C 39.69 47.67 *L 0.00168 *D AO22JIX0
*I *653:SD I *C 45.99 50.61 *L 0.00147 *D SDFRRSJIX1
*I *605:Q O *C 44.31 42.63 *L 0 *D SDFRRQJIX1
*I *567:B I *C 41.37 50.19 *L 0.00167 *D AN22JIX0

*CAP
1 *721:D 3.61124e-05
2 *653:SD 5.28513e-05
3 *605:Q 5.28513e-05
4 *567:B 2.87512e-05
5 *182:5 7.26385e-05
6 *182:6 5.25483e-05
7 *182:7 5.98687e-05
8 *182:8 0.000357481
9 *182:9 9.53108e-05
10 *182:10 0.000350161
11 *182:11 0.000232119
12 *182:12 8.753e-05
13 *182:13 0.000358752
14 *182:14 0.000351431
15 *182:15 0.000362989
16 *182:16 0.00037464
17 *182:17 0.00038196
18 *182:18 4.57116e-05
19 *182:19 0.000145061

*RES
1 *721:D *182:5 0.288803
2 *182:6 *182:5 9
3 *567:B *182:12 0.288803
4 *182:6 *182:7 0.184845
5 *182:16 *605:Q 9
6 *182:9 *182:12 0.577469
7 *182:7 *182:8 0.184845
8 *182:16 *182:17 1.47835
9 *182:10 *182:9 9
10 *182:8 *182:10 1.29364
11 *182:13 *182:17 0.184845
12 *182:11 *182:10 9
13 *182:13 *182:14 2.03275
14 *182:11 *182:15 1.47835
15 *182:15 *182:14 9
16 *182:15 *182:19 0.92395
17 *182:18 *653:SD 9
18 *182:18 *182:19 9
19 *182:4 *182:18 0.256805
*END

*D_NET *183 0.00440263

*CONN
*I *723:D I *C 39.69 34.65 *L 0.00168 *D AO22JIX0
*I *605:SD I *C 35.49 43.05 *L 0.00147 *D SDFRRQJIX1
*I *604:Q O *C 44.73 39.69 *L 0 *D SDFRRQJIX1
*I *569:B I *C 40.53 47.25 *L 0.00167 *D AN22JIX0

*CAP
1 *723:D 0.000259659
2 *605:SD 5.28478e-05
3 *604:Q 8.62486e-05
4 *569:B 5.28478e-05
5 *183:5 4.57087e-05
6 *183:6 0.000327961
7 *183:7 0.000296326
8 *183:8 0.000218402
9 *183:9 0.00055897
10 *183:10 0.000327961
11 *183:11 0.000276828
12 *183:12 0.000289972
13 *183:13 0.000285639
14 *183:14 0.000134772
15 *183:15 0.000525407
16 *183:16 0.000253961
17 *183:17 0.000218402
18 *183:18 0.000190707

*RES
1 *723:D *183:12 2.59882
2 *183:18 *604:Q 0.866272
3 *183:13 *183:12 9
4 *183:14 *183:18 0.866272
5 *183:13 *183:15 1.29364
6 *183:15 *183:14 9
7 *183:15 *183:16 1.29364
8 *183:17 *183:16 9
9 *183:8 *183:17 1.29364
10 *183:7 *183:8 9
11 *183:11 *569:B 9
12 *183:7 *183:9 1.1088
13 *183:9 *183:11 1.47835
14 *183:10 *183:9 9
15 *183:6 *183:10 2.21759
16 *183:5 *605:SD 9
17 *183:5 *183:6 9
18 *183:4 *183:5 0.256805
*END

*D_NET *184 0.00521995

*CONN
*I *720:D I *C 25.83 34.65 *L 0.00168 *D AO22JIX0
*I *603:Q O *C 33.81 39.69 *L 0 *D SDFRRQJIX1
*I *599:SD I *C 24.57 31.71 *L 0.00147 *D SDFRRQJIX1
*I *578:B I *C 35.49 50.19 *L 0.00167 *D AN22JIX0

*CAP
1 *720:D 0.000368472
2 *603:Q 8.61177e-05
3 *599:SD 5.28514e-05
4 *578:B 5.28514e-05
5 *184:5 4.57141e-05
6 *184:6 9.75956e-05
7 *184:7 0.000282307
8 *184:8 9.75956e-05
9 *184:9 0.000282307
10 *184:10 0.00034593
11 *184:11 0.00021069
12 *184:12 0.000286488
13 *184:13 0.00061707
14 *184:14 0.00042057
15 *184:15 0.000318059
16 *184:16 0.000342296
17 *184:17 0.000497479
18 *184:18 0.000318059
19 *184:19 0.000497479

*RES
1 *184:19 *578:B 9
2 *184:17 *184:19 2.40244
3 *184:18 *184:17 9
4 *184:15 *184:18 2.03275
5 *184:16 *603:Q 0.866272
6 *184:14 *184:15 9
7 *184:12 *184:16 2.02121
8 *184:13 *184:14 2.95683
9 *184:13 *184:12 9
10 *184:11 *184:13 1.29364
11 *184:10 *184:11 9
12 *720:D *184:10 3.46495
13 *184:9 *720:D 9
14 *184:7 *184:9 1.29364
15 *184:8 *184:7 9
16 *184:6 *184:8 0.554398
17 *184:5 *599:SD 9
18 *184:5 *184:6 9
19 *184:4 *184:5 0.256805
*END

*D_NET *185 0.00572189

*CONN
*I *718:D I *C 29.19 27.09 *L 0.00168 *D AO22JIX0
*I *602:Q O *C 32.97 24.57 *L 0 *D SDFRRQJIX1
*I *601:SD I *C 35.07 24.15 *L 0.00147 *D SDFRRQJIX1
*I *578:D I *C 37.17 50.19 *L 0.00167 *D AN22JIX0

*CAP
1 *718:D 0.000207895
2 *602:Q 5.2859e-05
3 *601:SD 5.2859e-05
4 *578:D 5.2859e-05
5 *185:4 0.000261798
6 *185:5 0.000379948
7 *185:6 0.000254268
8 *185:7 6.03331e-05
9 *185:8 0.000339073
10 *185:9 0.000194606
11 *185:10 0.00122148
12 *185:11 0.000995282
13 *185:12 0.000772327
14 *185:13 0.000681166
15 *185:14 0.000101338
16 *185:15 9.3808e-05

*RES
1 *185:15 *578:D 9
2 *185:14 *185:15 0.554398
3 *185:13 *185:14 0.184845
4 *185:12 *185:13 4.06563
5 *185:8 *601:SD 9
6 *185:11 *185:12 0.739243
7 *185:7 *602:Q 9
8 *185:8 *185:10 1.47835
9 *185:10 *185:11 5.35927
10 *185:4 *185:7 0.184845
11 *185:9 *185:10 9
12 *185:4 *185:6 1.47835
13 *185:5 *185:9 1.73254
14 *185:5 *185:6 9
15 *718:D *185:5 2.31001
*END

*D_NET *186 0.00577848

*CONN
*I *717:D I *C 42.63 27.09 *L 0.00168 *D AO22JIX0
*I *601:Q O *C 43.89 24.57 *L 0 *D SDFRRQJIX1
*I *600:SD I *C 35.49 31.71 *L 0.00147 *D SDFRRQJIX1
*I *567:D I *C 43.05 50.19 *L 0.00167 *D AN22JIX0

*CAP
1 *717:D 5.2855e-05
2 *601:Q 5.2855e-05
3 *600:SD 5.2855e-05
4 *567:D 5.2855e-05
5 *186:4 0.000204993
6 *186:5 0.000464114
7 *186:6 0.000204993
8 *186:7 0.000975225
9 *186:8 0.00100518
10 *186:9 0.000171679
11 *186:10 0.000286929
12 *186:11 0.000260778
13 *186:12 0.000464114
14 *186:13 8.47581e-05
15 *186:14 0.000510297
16 *186:15 0.000472811
17 *186:16 0.000196435
18 *186:17 0.000264735

*RES
1 *186:15 *567:D 9
2 *186:16 *601:Q 9
3 *186:14 *186:15 2.77199
4 *186:16 *186:17 0.739243
5 *186:8 *186:14 0.369553
6 *186:9 *186:17 0.554398
7 *186:7 *186:8 5.72882
8 *186:10 *717:D 9
9 *186:9 *186:10 0.554398
10 *186:7 *186:13 0.184845
11 *186:10 *186:11 1.1088
12 *186:11 *186:13 0.369553
13 *186:12 *186:11 9
14 *186:6 *600:SD 9
15 *186:5 *186:12 3.14154
16 *186:4 *186:6 0.554398
17 *186:4 *186:5 9
*END

*D_NET *187 0.00564793

*CONN
*I *716:D I *C 39.27 27.09 *L 0.00168 *D AO22JIX0
*I *604:SD I *C 35.91 39.27 *L 0.00147 *D SDFRRQJIX1
*I *600:Q O *C 44.31 32.13 *L 0 *D SDFRRQJIX1
*I *569:D I *C 42.21 47.25 *L 0.00167 *D AN22JIX0

*CAP
1 *716:D 2.7142e-05
2 *604:SD 5.28543e-05
3 *600:Q 8.61189e-05
4 *569:D 5.28543e-05
5 *187:4 0.000212593
6 *187:5 0.000329037
7 *187:6 0.000212593
8 *187:7 0.000113261
9 *187:8 0.000139734
10 *187:9 8.39166e-05
11 *187:10 0.000122266
12 *187:11 0.000656505
13 *187:12 0.00075563
14 *187:13 0.000329037
15 *187:14 0.000257965
16 *187:15 0.000432186
17 *187:16 0.000492534
18 *187:17 0.000108926
19 *187:18 0.000285095
20 *187:19 7.10144e-05
21 *187:20 0.000276736
22 *187:21 0.000209065
23 *187:22 0.000340901

*RES
1 *716:D *187:7 0.288803
2 *187:22 *600:Q 0.866272
3 *187:21 *569:D 9
4 *187:7 *187:8 0.866272
5 *187:18 *187:22 2.02121
6 *187:20 *187:21 1.1088
7 *187:8 *187:9 0.577469
8 *187:19 *187:18 9
9 *187:16 *187:20 0.554398
10 *187:10 *187:9 9
11 *187:17 *187:19 0.184845
12 *187:15 *187:16 1.84804
13 *187:10 *187:11 0.554398
14 *187:11 *187:17 0.369553
15 *187:14 *187:15 0.184845
16 *187:11 *187:12 3.14154
17 *187:12 *187:14 1.29364
18 *187:13 *187:12 9
19 *187:6 *604:SD 9
20 *187:5 *187:13 2.03275
21 *187:4 *187:6 0.739243
22 *187:4 *187:5 9
*END

*D_NET *188 0.00570063

*CONN
*I *714:D I *C 25.83 27.09 *L 0.00168 *D AO22JIX0
*I *602:SD I *C 24.15 24.15 *L 0.00147 *D SDFRRQJIX1
*I *599:Q O *C 33.39 32.13 *L 0 *D SDFRRQJIX1
*I *573:B I *C 32.55 50.19 *L 0.00167 *D AN22JIX0

*CAP
1 *714:D 5.28525e-05
2 *602:SD 5.28525e-05
3 *599:Q 5.28525e-05
4 *573:B 5.28525e-05
5 *188:4 0.000159083
6 *188:5 0.000159083
7 *188:6 0.000118923
8 *188:7 0.000104165
9 *188:8 0.000627302
10 *188:9 0.000104165
11 *188:10 0.000179173
12 *188:11 0.000141265
13 *188:12 0.000170893
14 *188:13 0.000170893
15 *188:14 0.000461253
16 *188:15 0.000529652
17 *188:16 0.00123044
18 *188:17 0.000783813
19 *188:18 0.000259362
20 *188:19 0.000289759

*RES
1 *188:11 *573:B 9
2 *188:10 *188:11 0.554398
3 *188:10 *188:19 0.369553
4 *188:18 *188:19 1.84804
5 *188:13 *188:18 0.184845
6 *188:12 *188:13 1.29364
7 *188:12 *188:17 0.184845
8 *188:16 *188:17 4.43518
9 *188:16 *599:Q 9
10 *188:9 *714:D 9
11 *188:14 *188:16 2.40244
12 *188:7 *188:9 0.369553
13 *188:15 *188:14 9
14 *188:8 *188:7 9
15 *188:8 *188:15 3.32639
16 *188:6 *188:8 0.739243
17 *188:5 *188:6 9
18 *188:4 *188:5 0.92395
19 *602:SD *188:4 9
*END

*D_NET *189 0.00281214

*CONN
*I *719:D I *C 28.35 49.77 *L 0.00168 *D AO22JIX0
*I *607:SD I *C 27.09 46.83 *L 0.00147 *D SDFRRQJIX1
*I *598:Q O *C 34.23 54.81 *L 0 *D SDFRRQJIX1
*I *573:D I *C 34.23 50.19 *L 0.00167 *D AN22JIX0

*CAP
1 *719:D 8.94198e-05
2 *607:SD 5.28476e-05
3 *598:Q 5.28476e-05
4 *573:D 0.000110258
5 *189:4 0.000118003
6 *189:5 4.96995e-05
7 *189:6 0.000335859
8 *189:7 0.000267562
9 *189:8 0.000368992
10 *189:9 8.16003e-05
11 *189:10 0.000397691
12 *189:11 0.00044368
13 *189:12 0.00044368

*RES
1 *189:12 *598:Q 9
2 *189:11 *189:12 1.66319
3 *573:D *189:11 9
4 *189:10 *573:D 0.577469
5 *189:8 *189:10 3.46495
6 *189:8 *189:9 0.288803
7 *719:D *189:9 0.577469
8 *189:7 *719:D 9
9 *189:5 *607:SD 9
10 *189:6 *189:7 1.66319
11 *189:4 *189:5 0.184845
12 *189:4 *189:6 0.554398
*END

*D_NET *190 0.00562982

*CONN
*I *688:D I *C 24.99 95.13 *L 0.00168 *D AO22JIX0
*I *622:SD I *C 36.75 92.19 *L 0.00147 *D SDFRRQJIX1
*I *621:Q O *C 35.91 95.55 *L 0 *D SDFRRQJIX1
*I *576:B I *C 40.95 85.05 *L 0.00167 *D AN22JIX0

*CAP
1 *688:D 5.2849e-05
2 *622:SD 5.2849e-05
3 *621:Q 5.2849e-05
4 *576:B 5.2849e-05
5 *190:5 5.2417e-05
6 *190:6 0.000705927
7 *190:7 5.2417e-05
8 *190:8 0.000152343
9 *190:9 0.000173652
10 *190:10 0.00113259
11 *190:11 7.27581e-05
12 *190:12 0.000152516
13 *190:13 0.000189759
14 *190:14 0.000339284
15 *190:15 0.000301782
16 *190:16 0.000440852
17 *190:17 0.000807304
18 *190:18 0.000844807

*RES
1 *190:17 *576:B 9
2 *190:17 *190:18 2.77199
3 *190:12 *622:SD 9
4 *190:14 *190:18 0.369553
5 *190:12 *190:13 0.554398
6 *190:14 *190:15 1.47835
7 *190:8 *190:13 0.369553
8 *190:11 *621:Q 9
9 *190:16 *190:15 9
10 *190:8 *190:9 0.554398
11 *190:9 *190:11 0.369553
12 *190:10 *190:16 1.84804
13 *190:10 *190:9 9
14 *190:7 *688:D 9
15 *190:6 *190:10 4.80473
16 *190:5 *190:7 0.184845
17 *190:5 *190:6 9
18 *190:4 *190:5 0.0811615
*END

*D_NET *191 0.00374822

*CONN
*I *690:D I *C 35.07 80.01 *L 0.00168 *D AO22JIX0
*I *648:SD I *C 48.09 80.85 *L 0.00147 *D SDFRRQJIX1
*I *620:Q O *C 45.99 80.43 *L 0 *D SDFRRQJIX1
*I *570:B I *C 42.21 77.49 *L 0.00167 *D AN22JIX0

*CAP
1 *690:D 5.28434e-05
2 *648:SD 5.28434e-05
3 *620:Q 5.28434e-05
4 *570:B 5.28434e-05
5 *191:5 6.4745e-05
6 *191:6 0.000720749
7 *191:7 6.4745e-05
8 *191:8 0.000339973
9 *191:9 0.000339973
10 *191:10 0.00100642
11 *191:11 7.7261e-05
12 *191:12 0.000470968
13 *191:13 7.7261e-05
14 *191:14 9.47219e-05
15 *191:15 0.000185297
16 *191:16 9.47219e-05

*RES
1 *191:16 *648:SD 9
2 *191:14 *191:16 0.554398
3 *191:13 *620:Q 9
4 *191:8 *570:B 9
5 *191:15 *191:14 9
6 *191:11 *191:13 0.369553
7 *191:8 *191:9 0.92395
8 *191:12 *191:15 0.92395
9 *191:12 *191:11 9
10 *191:10 *191:9 9
11 *191:10 *191:12 1.66319
12 *191:7 *690:D 9
13 *191:6 *191:10 3.14154
14 *191:5 *191:7 0.184845
15 *191:5 *191:6 9
16 *191:4 *191:5 0.0811615
*END

*D_NET *192 0.00328176

*CONN
*I *736:D I *C 28.77 87.57 *L 0.00168 *D AO22JIX0
*I *621:SD I *C 27.09 95.97 *L 0.00147 *D SDFRRQJIX1
*I *619:Q O *C 34.23 92.61 *L 0 *D SDFRRQJIX1
*I *580:B I *C 33.81 87.99 *L 0.00167 *D AN22JIX0

*CAP
1 *736:D 0.000105737
2 *621:SD 5.28517e-05
3 *619:Q 5.28517e-05
4 *580:B 0.000110263
5 *192:4 0.00044134
6 *192:5 0.000344001
7 *192:6 0.000306261
8 *192:7 0.0004036
9 *192:8 0.000401297
10 *192:9 8.16009e-05
11 *192:10 0.000429999
12 *192:11 8.53722e-05
13 *192:12 9.25578e-05
14 *192:13 0.000190611
15 *192:14 0.000183419

*RES
1 *192:14 *619:Q 9
2 *192:13 *192:14 1.29364
3 *192:12 *192:13 0.184845
4 *192:11 *192:12 0.369553
5 *580:B *192:11 9
6 *192:10 *580:B 0.577469
7 *192:8 *192:10 2.88748
8 *192:8 *192:9 0.288803
9 *736:D *192:9 0.577469
10 *192:6 *736:D 9
11 *192:5 *621:SD 9
12 *192:6 *192:7 1.84804
13 *192:4 *192:5 1.66319
14 *192:4 *192:7 0.739243
*END

*D_NET *193 0.00353816

*CONN
*I *735:D I *C 25.83 87.57 *L 0.00168 *D AO22JIX0
*I *619:SD I *C 25.41 92.19 *L 0.00147 *D SDFRRQJIX1
*I *618:Q O *C 33.81 85.05 *L 0 *D SDFRRQJIX1
*I *580:D I *C 35.49 87.99 *L 0.00167 *D AN22JIX0

*CAP
1 *735:D 5.28476e-05
2 *619:SD 5.28476e-05
3 *618:Q 5.28476e-05
4 *580:D 5.28476e-05
5 *193:4 0.000438534
6 *193:5 0.000431346
7 *193:6 7.27458e-05
8 *193:7 0.000712256
9 *193:8 8.703e-05
10 *193:9 0.000183963
11 *193:10 0.000183963
12 *193:11 0.00085961
13 *193:12 9.78776e-05
14 *193:13 0.000161533
15 *193:14 9.78776e-05

*RES
1 *193:14 *580:D 9
2 *193:12 *193:14 0.369553
3 *193:9 *618:Q 9
4 *193:13 *193:12 9
5 *193:9 *193:10 0.92395
6 *193:11 *193:13 0.739243
7 *193:11 *193:10 9
8 *193:7 *193:11 3.51123
9 *193:6 *193:7 9
10 *193:5 *619:SD 9
11 *193:8 *735:D 9
12 *193:6 *193:8 0.369553
13 *193:4 *193:5 1.66319
14 *193:4 *193:8 0.184845
*END

*D_NET *194 0.00424026

*CONN
*I *734:D I *C 32.55 87.57 *L 0.00168 *D AO22JIX0
*I *620:SD I *C 37.17 80.85 *L 0.00147 *D SDFRRQJIX1
*I *617:Q O *C 46.83 87.99 *L 0 *D SDFRRQJIX1
*I *576:D I *C 42.63 85.05 *L 0.00167 *D AN22JIX0

*CAP
1 *734:D 5.28508e-05
2 *620:SD 5.28508e-05
3 *617:Q 5.28508e-05
4 *576:D 0.000268724
5 *194:4 0.000152183
6 *194:5 0.000287467
7 *194:6 0.000152183
8 *194:7 0.000314818
9 *194:8 0.000314818
10 *194:9 0.00052968
11 *194:10 0.000324379
12 *194:11 0.000264561
13 *194:12 0.000324379
14 *194:13 0.000115457
15 *194:14 0.000297473
16 *194:15 6.52815e-05
17 *194:16 0.000155109
18 *194:17 0.000274414
19 *194:18 0.000107302
20 *194:19 0.000133489

*RES
1 *576:D *194:14 2.88748
2 *194:14 *194:15 0.288803
3 *194:16 *194:15 9
4 *194:19 *617:Q 9
5 *194:16 *194:17 0.554398
6 *194:17 *194:19 0.739243
7 *194:18 *194:17 9
8 *194:13 *194:18 0.554398
9 *194:12 *194:13 0.184845
10 *194:7 *620:SD 9
11 *194:10 *194:12 2.03275
12 *194:7 *194:8 2.21759
13 *194:10 *194:11 0.184845
14 *194:9 *194:8 9
15 *194:9 *194:11 1.66319
16 *194:6 *734:D 9
17 *194:5 *194:9 2.03275
18 *194:4 *194:6 0.554398
19 *194:4 *194:5 9
*END

*D_NET *195 0.00373218

*CONN
*I *733:D I *C 41.37 77.91 *L 0.00168 *D AO22JIX0
*I *616:Q O *C 47.67 69.93 *L 0 *D SDFRRQJIX1
*I *613:SD I *C 37.17 73.29 *L 0.00147 *D SDFRRQJIX1
*I *570:D I *C 43.89 77.49 *L 0.00167 *D AN22JIX0

*CAP
1 *733:D 0.000108669
2 *616:Q 5.28502e-05
3 *613:SD 8.39269e-05
4 *570:D 5.7498e-05
5 *195:5 4.57068e-05
6 *195:6 0.000192031
7 *195:7 0.000192131
8 *195:8 8.96736e-05
9 *195:9 0.000386772
10 *195:10 0.00050015
11 *195:11 0.000386772
12 *195:12 8.4568e-05
13 *195:13 0.000176531
14 *195:14 0.00020528
15 *195:15 0.000119483
16 *195:16 0.000469096
17 *195:17 0.0002494
18 *195:18 0.0002494
19 *195:19 8.22403e-05

*RES
1 *570:D *195:14 0.577469
2 *195:13 *195:14 1.15494
3 *195:12 *195:13 0.288803
4 *195:17 *616:Q 9
5 *733:D *195:12 0.577469
6 *195:17 *195:18 1.29364
7 *195:19 *195:18 9
8 *195:11 *733:D 9
9 *195:15 *195:19 0.369553
10 *195:9 *195:11 1.66319
11 *195:15 *195:16 0.369553
12 *195:10 *195:9 9
13 *195:10 *195:16 2.40244
14 *195:8 *195:10 0.369553
15 *195:7 *195:8 0.184845
16 *195:6 *195:7 1.47835
17 *195:5 *613:SD 9
18 *195:5 *195:6 9
19 *195:4 *195:5 0.276306
*END

*D_NET *196 0.00321306

*CONN
*I *732:D I *C 25.41 80.01 *L 0.00168 *D AO22JIX0
*I *618:SD I *C 24.99 84.63 *L 0.00147 *D SDFRRQJIX1
*I *615:Q O *C 33.81 77.49 *L 0 *D SDFRRQJIX1
*I *572:B I *C 30.03 80.43 *L 0.00167 *D AN22JIX0

*CAP
1 *732:D 7.66156e-05
2 *618:SD 5.28531e-05
3 *615:Q 5.15462e-05
4 *572:B 5.74146e-05
5 *196:4 0.000327963
6 *196:5 0.000320775
7 *196:6 6.50045e-05
8 *196:7 7.22049e-05
9 *196:8 0.000388318
10 *196:9 5.24761e-05
11 *196:10 0.00082352
12 *196:11 8.18556e-05
13 *196:12 0.000202867
14 *196:13 0.000436811
15 *196:14 0.000202867

*RES
1 *615:Q *196:11 0.577469
2 *196:12 *196:11 9
3 *196:12 *196:14 0.92395
4 *196:13 *196:14 9
5 *196:10 *572:B 0.577469
6 *196:10 *196:13 3.17628
7 *196:8 *196:10 2.88748
8 *196:8 *196:9 0.288803
9 *732:D *196:9 0.288803
10 *196:6 *732:D 9
11 *196:5 *618:SD 9
12 *196:6 *196:7 0.369553
13 *196:4 *196:5 1.29364
14 *196:4 *196:7 0.184845
*END

*D_NET *197 0.00309499

*CONN
*I *731:D I *C 28.77 80.01 *L 0.00168 *D AO22JIX0
*I *615:SD I *C 24.99 77.07 *L 0.00147 *D SDFRRQJIX1
*I *614:Q O *C 34.23 72.87 *L 0 *D SDFRRQJIX1
*I *572:D I *C 31.71 80.43 *L 0.00167 *D AN22JIX0

*CAP
1 *731:D 5.28503e-05
2 *615:SD 5.28503e-05
3 *614:Q 8.61226e-05
4 *572:D 5.28503e-05
5 *197:5 4.57131e-05
6 *197:6 0.000239432
7 *197:7 0.000104102
8 *197:8 0.000239432
9 *197:9 0.000111288
10 *197:10 8.53694e-05
11 *197:11 0.000126149
12 *197:12 0.000235838
13 *197:13 6.21609e-05
14 *197:14 0.000242877
15 *197:15 0.000328901
16 *197:16 0.00040462
17 *197:17 0.000235838
18 *197:18 8.99073e-05
19 *197:19 0.000298691

*RES
1 *614:Q *197:19 0.866272
2 *197:14 *197:19 1.73254
3 *197:15 *197:14 9
4 *197:18 *572:D 9
5 *197:15 *197:16 2.03275
6 *197:16 *197:18 0.554398
7 *197:17 *197:16 9
8 *197:13 *731:D 9
9 *197:12 *197:17 1.29364
10 *197:11 *197:13 0.369553
11 *197:11 *197:12 9
12 *197:10 *197:11 0.369553
13 *197:9 *197:10 0.184845
14 *197:7 *197:9 0.554398
15 *197:8 *197:7 9
16 *197:6 *197:8 1.47835
17 *197:5 *615:SD 9
18 *197:5 *197:6 9
19 *197:4 *197:5 0.256805
*END

*D_NET *198 0.00365046

*CONN
*I *686:B I *C 64.89 85.05 *L 0.00171 *D NA2JIX0
*I *651:SD I *C 67.83 80.85 *L 0.00147 *D SDFRRSJIX1
*I *649:Q O *C 69.51 77.49 *L 0 *D SDFRRQJIX1
*I *595:A I *C 66.15 87.99 *L 0.00159 *D NO2JIX0
*I *594:AN I *C 66.57 85.05 *L 0.00163 *D NA2I1JIX0
*I *550:B I *C 63.21 85.05 *L 0.00168 *D NA3I1JIX0

*CAP
1 *686:B 2.76628e-05
2 *651:SD 5.28474e-05
3 *649:Q 5.28474e-05
4 *595:A 5.28474e-05
5 *594:AN 7.77919e-05
6 *550:B 5.28474e-05
7 *198:6 0.000133228
8 *198:7 7.81877e-05
9 *198:8 7.81877e-05
10 *198:9 0.00027232
11 *198:10 8.51617e-05
12 *198:11 0.000209891
13 *198:12 9.65019e-05
14 *198:13 7.53202e-05
15 *198:14 0.000408143
16 *198:15 0.000408143
17 *198:16 0.000105202
18 *198:17 7.07984e-05
19 *198:18 6.77103e-05
20 *198:19 0.000349807
21 *198:20 0.00042516
22 *198:21 0.000194697
23 *198:22 5.78428e-05
24 *198:23 0.00011819
25 *198:24 4.58992e-05
26 *198:25 5.32172e-05

*RES
1 *198:24 *649:Q 9
2 *198:24 *198:25 0.184845
3 *198:22 *198:25 0.184845
4 *198:22 *198:23 0.184845
5 *198:15 *595:A 9
6 *198:19 *198:23 0.554398
7 *198:14 *198:15 1.47835
8 *198:20 *651:SD 9
9 *198:19 *198:20 1.29364
10 *198:13 *198:14 9
11 *198:20 *198:21 0.92395
12 *198:13 *594:AN 0.288803
13 *198:16 *198:21 0.369553
14 *198:16 *198:18 0.184845
15 *198:12 *594:AN 0.288803
16 *198:17 *198:18 9
17 *198:8 *550:B 9
18 *198:10 *686:B 0.288803
19 *198:11 *198:12 0.577469
20 *198:11 *198:17 0.577469
21 *198:7 *198:8 0.369553
22 *198:9 *198:10 0.577469
23 *198:9 *198:11 1.15494
24 *198:6 *198:7 9
25 *198:6 *198:9 0.866272
*END

*D_NET *199 0.0072693

*CONN
*I *685:B I *C 52.29 85.05 *L 0.00171 *D NA2JIX0
*I *650:SD I *C 45.99 77.07 *L 0.00147 *D SDFRRQJIX1
*I *648:Q O *C 56.91 80.43 *L 0 *D SDFRRQJIX1
*I *597:C I *C 58.17 80.43 *L 0.0017 *D NA3I1JIX0
*I *596:AN I *C 60.27 87.99 *L 0.00163 *D NA2I1JIX0
*I *587:B I *C 58.59 87.99 *L 0.00149 *D AND3JIX0
*I *586:B I *C 51.45 87.99 *L 0.00166 *D NO2I1JIX0
*I *585:B I *C 54.81 85.05 *L 0.00166 *D NO2I1JIX0
*I *584:B I *C 56.91 85.05 *L 0.0017 *D AND2JIX0
*I *583:B I *C 53.55 87.99 *L 0.0017 *D AND2JIX0

*CAP
1 *685:B 3.85316e-05
2 *650:SD 5.28487e-05
3 *648:Q 5.28487e-05
4 *597:C 5.28487e-05
5 *596:AN 5.28487e-05
6 *587:B 5.28487e-05
7 *586:B 5.28487e-05
8 *585:B 5.28487e-05
9 *584:B 5.28487e-05
10 *583:B 5.28487e-05
11 *199:13 0.000134808
12 *199:14 0.000134808
13 *199:15 0.000396156
14 *199:16 0.000524462
15 *199:17 0.000396156
16 *199:18 7.50628e-05
17 *199:19 0.0007622
18 *199:20 0.000251927
19 *199:21 0.000128621
20 *199:22 0.000311626
21 *199:23 0.00024396
22 *199:24 0.000357159
23 *199:25 0.000106616
24 *199:26 0.000174294
25 *199:27 0.000180004
26 *199:28 0.000624961
27 *199:29 0.000723168
28 *199:30 0.000210546
29 *199:31 0.000346319
30 *199:32 0.000144252
31 *199:33 7.65747e-05
32 *199:34 4.57076e-05
33 *199:35 0.000231806
34 *199:36 4.57076e-05
35 *199:37 0.000128225

*RES
1 *199:13 *650:SD 9
2 *199:13 *199:14 0.739243
3 *199:15 *199:14 9
4 *199:15 *199:17 2.40244
5 *199:33 *597:C 9
6 *199:25 *585:B 9
7 *199:18 *685:B 0.577469
8 *199:16 *199:17 9
9 *199:32 *199:33 0.369553
10 *199:25 *199:26 0.369553
11 *199:19 *199:18 9
12 *199:16 *199:19 2.77199
13 *199:27 *199:32 0.554398
14 *199:22 *199:26 0.554398
15 *199:20 *586:B 9
16 *199:19 *199:20 1.47835
17 *199:27 *199:28 0.369553
18 *199:28 *648:Q 9
19 *199:23 *583:B 9
20 *199:22 *199:23 1.29364
21 *199:12 *199:23 0.256805
22 *199:21 *199:20 9
23 *199:29 *584:B 9
24 *199:28 *199:29 1.84804
25 *199:24 *199:23 9
26 *199:21 *199:24 0.92395
27 *199:29 *199:30 1.47835
28 *199:34 *587:B 9
29 *199:11 *199:34 0.256805
30 *199:24 *199:31 1.47835
31 *199:31 *199:30 9
32 *199:35 *199:34 9
33 *199:31 *199:35 0.739243
34 *199:35 *199:37 0.739243
35 *199:36 *596:AN 9
36 *199:36 *199:37 9
37 *199:10 *199:36 0.256805
*END

*D_NET *200 0.00910981

*CONN
*I *770:A I *C 67.83 87.99 *L 0.00164 *D INVJIX0
*I *684:D I *C 75.39 87.99 *L 0.00168 *D AO32JIX0
*I *647:Q O *C 79.17 85.05 *L 0 *D SDFRRQJIX1
*I *634:SD I *C 70.77 103.53 *L 0.00147 *D SDFRRQJIX1
*I *597:B I *C 58.59 80.43 *L 0.00168 *D NA3I1JIX0
*I *596:B I *C 61.11 87.99 *L 0.0017 *D NA2I1JIX0
*I *592:B I *C 58.59 85.05 *L 0.00166 *D NO2JIX0
*I *588:B I *C 56.07 87.99 *L 0.00166 *D NO2I1JIX0
*I *587:C I *C 59.01 87.99 *L 0.00168 *D AND3JIX0

*CAP
1 *770:A 8.7807e-05
2 *684:D 5.75038e-05
3 *647:Q 5.28567e-05
4 *634:SD 5.28567e-05
5 *597:B 5.28567e-05
6 *596:B 5.28567e-05
7 *592:B 8.39252e-05
8 *588:B 5.28567e-05
9 *587:C 5.28567e-05
10 *200:9 0.000213709
11 *200:10 0.000136058
12 *200:11 0.000213709
13 *200:12 0.000296354
14 *200:13 0.00046707
15 *200:14 0.000169325
16 *200:15 0.000280576
17 *200:16 5.32185e-05
18 *200:17 0.000105004
19 *200:18 9.76855e-05
20 *200:19 0.000113867
21 *200:20 0.000624235
22 *200:21 0.000113867
23 *200:22 0.000156706
24 *200:23 0.000589772
25 *200:24 0.000624611
26 *200:25 0.000156706
27 *200:26 0.000124246
28 *200:27 0.000622454
29 *200:28 0.000800643
30 *200:29 0.000284305
31 *200:30 0.000105352
32 *200:31 0.000106117
33 *200:32 0.000168407
34 *200:33 0.000105352
35 *200:34 0.000168407
36 *200:35 0.00091181
37 *200:36 7.49372e-05
38 *200:37 0.000317516
39 *200:38 6.77162e-05
40 *200:39 0.000143252
41 *200:40 0.000150487

*RES
1 *200:39 *647:Q 9
2 *200:34 *634:SD 9
3 *200:39 *200:40 0.739243
4 *200:32 *200:34 0.92395
5 *200:36 *200:40 0.184845
6 *200:33 *200:32 9
7 *200:36 *200:38 0.184845
8 *200:30 *200:33 0.554398
9 *200:37 *200:38 9
10 *200:31 *200:30 9
11 *200:35 *684:D 0.577469
12 *200:35 *200:37 2.31001
13 *200:29 *200:31 0.554398
14 *200:24 *200:35 5.19749
15 *200:28 *200:29 1.29364
16 *200:24 *770:A 0.577469
17 *200:18 *587:C 9
18 *200:27 *200:28 4.62003
19 *200:25 *770:A 9
20 *200:12 *597:B 9
21 *200:17 *200:18 0.554398
22 *200:21 *596:B 9
23 *200:26 *200:27 9
24 *200:22 *200:25 0.554398
25 *200:13 *592:B 9
26 *200:12 *200:13 1.84804
27 *200:16 *200:17 0.184845
28 *200:19 *200:21 0.739243
29 *200:23 *200:26 0.739243
30 *200:23 *200:22 9
31 *200:13 *200:14 0.739243
32 *200:14 *200:16 0.184845
33 *200:20 *200:19 9
34 *200:20 *200:23 2.95683
35 *200:15 *200:14 9
36 *200:15 *200:20 1.1088
37 *200:11 *588:B 9
38 *200:10 *200:15 1.1088
39 *200:9 *200:11 0.739243
40 *200:9 *200:10 9
*END

*D_NET *201 0.00465863

*CONN
*I *771:A I *C 72.87 92.61 *L 0.00164 *D INVJIX0
*I *684:B I *C 73.71 87.99 *L 0.00163 *D AO32JIX0
*I *647:SD I *C 70.35 84.63 *L 0.00147 *D SDFRRQJIX1
*I *646:Q O *C 67.41 92.61 *L 0 *D SDFRRQJIX1
*I *595:B I *C 65.73 87.99 *L 0.00166 *D NO2JIX0
*I *594:B I *C 67.41 85.05 *L 0.0017 *D NA2I1JIX0
*I *550:C I *C 62.79 85.05 *L 0.0017 *D NA3I1JIX0

*CAP
1 *771:A 5.28489e-05
2 *684:B 5.28489e-05
3 *647:SD 5.28489e-05
4 *646:Q 5.28489e-05
5 *595:B 5.74991e-05
6 *594:B 5.28489e-05
7 *550:C 5.28489e-05
8 *201:10 4.57124e-05
9 *201:11 0.000316143
10 *201:12 0.000203852
11 *201:13 0.000356891
12 *201:14 0.000477728
13 *201:15 0.000176664
14 *201:16 0.00055611
15 *201:17 0.000213407
16 *201:18 4.57124e-05
17 *201:19 0.000377851
18 *201:20 7.20605e-05
19 *201:21 6.47374e-05
20 *201:22 9.48022e-05
21 *201:23 9.48022e-05
22 *201:24 0.000261953
23 *201:25 0.000216258
24 *201:26 0.000474902
25 *201:27 0.00023446

*RES
1 *201:21 *771:A 9
2 *201:20 *201:21 0.184845
3 *201:20 *201:23 0.184845
4 *595:B *201:12 0.577469
5 *201:22 *201:23 0.369553
6 *201:12 *201:15 1.15494
7 *201:17 *646:Q 9
8 *201:22 *201:27 0.184845
9 *201:10 *550:C 9
10 *201:9 *201:10 0.256805
11 *201:16 *201:15 9
12 *201:16 *201:17 1.29364
13 *201:26 *684:B 9
14 *201:26 *201:27 1.1088
15 *201:11 *201:10 9
16 *201:13 *594:B 9
17 *201:8 *201:13 0.256805
18 *201:13 *201:16 2.03275
19 *201:24 *201:26 1.66319
20 *201:11 *201:14 2.03275
21 *201:14 *201:13 9
22 *201:25 *201:24 9
23 *201:14 *201:19 1.29364
24 *201:19 *201:25 1.47835
25 *201:18 *647:SD 9
26 *201:18 *201:19 9
27 *201:7 *201:18 0.256805
*END

*D_NET *202 0.00249855

*CONN
*I *677:QN O *C 112.755 87.72 *L 0 *D SDFRRSJIX1
*I *672:SD I *C 102.69 80.85 *L 0.00147 *D SDFRRSJIX1

*CAP
1 *677:QN 5.28512e-05
2 *672:SD 5.28512e-05
3 *202:3 4.57114e-05
4 *202:4 0.00010131
5 *202:5 0.00010863
6 *202:6 0.00051305
7 *202:7 0.000118158
8 *202:8 0.00051305
9 *202:9 0.00044105
10 *202:10 0.000110838
11 *202:11 0.00044105

*RES
1 *202:11 *677:QN 9
2 *202:9 *202:11 2.95683
3 *202:10 *202:9 9
4 *202:7 *202:10 0.554398
5 *202:7 *202:8 0.184845
6 *202:6 *202:8 3.32639
7 *202:5 *202:6 0.184845
8 *202:4 *202:5 0.554398
9 *202:3 *672:SD 9
10 *202:3 *202:4 9
11 *202:2 *202:3 0.256805
*END

*D_NET *203 0.00163014

*CONN
*I *676:QN O *C 100.575 95.28 *L 0 *D SDFRRSJIX1
*I *671:SD I *C 94.29 92.19 *L 0.00147 *D SDFRRSJIX1

*CAP
1 *676:QN 5.28508e-05
2 *671:SD 5.28508e-05
3 *203:2 0.000186091
4 *203:3 0.000186091
5 *203:4 7.98999e-05
6 *203:5 0.00026289
7 *203:6 8.72208e-05
8 *203:7 0.00026289
9 *203:8 0.00011711
10 *203:9 0.000116232
11 *203:10 0.000109789
12 *203:11 0.000116232

*RES
1 *203:11 *676:QN 9
2 *203:9 *203:11 0.369553
3 *203:10 *203:9 9
4 *203:8 *203:10 0.554398
5 *203:7 *203:8 0.184845
6 *203:5 *203:7 1.66319
7 *203:5 *203:6 0.184845
8 *203:4 *203:6 0.554398
9 *203:3 *203:4 9
10 *203:2 *203:3 1.1088
11 *671:SD *203:2 9
*END

*D_NET *204 0.00192815

*CONN
*I *673:SD I *C 103.53 77.07 *L 0.00147 *D SDFRRSJIX1
*I *672:QN O *C 112.755 80.16 *L 0 *D SDFRRSJIX1

*CAP
1 *673:SD 5.28476e-05
2 *672:QN 5.28476e-05
3 *204:3 0.000242456
4 *204:4 0.000242456
5 *204:5 0.00064591
6 *204:6 4.57119e-05
7 *204:7 0.00064591

*RES
1 *204:3 *673:SD 9
2 *204:3 *204:4 1.47835
3 *204:5 *204:4 9
4 *204:5 *204:7 4.06563
5 *204:6 *204:7 9
6 *204:6 *672:QN 9
7 *204:2 *204:6 0.256805
*END

*D_NET *205 0.0008632

*CONN
*I *677:SD I *C 102.69 88.41 *L 0.00147 *D SDFRRSJIX1
*I *671:QN O *C 104.355 92.88 *L 0 *D SDFRRSJIX1

*CAP
1 *677:SD 5.28512e-05
2 *671:QN 8.61208e-05
3 *205:2 0.000167391
4 *205:3 0.000174621
5 *205:4 0.00013673
6 *205:5 5.29511e-05
7 *205:6 0.00019254

*RES
1 *205:6 *671:QN 0.866272
2 *205:4 *205:6 0.866272
3 *205:5 *205:4 9
4 *205:3 *205:5 0.184845
5 *205:2 *205:3 0.92395
6 *677:SD *205:2 9
*END

*D_NET *206 0.0033527

*CONN
*I *668:QN O *C 66.555 57.48 *L 0 *D SDFRRSJIX1
*I *663:SD I *C 44.31 58.17 *L 0.00147 *D SDFRRSJIX1

*CAP
1 *668:QN 5.286e-05
2 *663:SD 5.286e-05
3 *206:4 4.5701e-05
4 *206:5 0.00130698
5 *206:6 0.000270797
6 *206:7 0.00131418
7 *206:8 4.5701e-05
8 *206:9 0.000263618

*RES
1 *206:3 *206:8 0.256805
2 *206:8 *668:QN 9
3 *206:9 *206:8 9
4 *206:6 *206:9 1.66319
5 *206:6 *206:7 0.184845
6 *206:5 *206:7 8.13126
7 *206:4 *663:SD 9
8 *206:4 *206:5 9
9 *206:2 *206:4 0.256805
*END

*D_NET *207 0.00215714

*CONN
*I *667:QN O *C 79.575 49.92 *L 0 *D SDFRRSJIX1
*I *662:SD I *C 69.51 54.39 *L 0.00147 *D SDFRRSJIX1

*CAP
1 *667:QN 5.28455e-05
2 *662:SD 5.28455e-05
3 *207:2 9.84334e-05
4 *207:3 0.00073969
5 *207:4 9.84334e-05
6 *207:5 0.0001876
7 *207:6 0.0001876
8 *207:7 0.00073969

*RES
1 *207:5 *667:QN 9
2 *207:5 *207:6 0.92395
3 *207:7 *207:6 9
4 *207:4 *662:SD 9
5 *207:3 *207:7 4.43518
6 *207:2 *207:4 0.554398
7 *207:2 *207:3 9
*END

*D_NET *208 0.00239734

*CONN
*I *666:QN O *C 92.175 92.88 *L 0 *D SDFRRSJIX1
*I *639:SD I *C 79.59 95.97 *L 0.00147 *D SDFRRQJIX1

*CAP
1 *666:QN 5.28483e-05
2 *639:SD 5.28483e-05
3 *208:2 0.000197168
4 *208:3 0.000471253
5 *208:4 0.000197168
6 *208:5 0.00047857
7 *208:6 0.000272902
8 *208:7 9.36109e-05
9 *208:8 0.000272902
10 *208:9 0.000110889
11 *208:10 0.000110889
12 *208:11 8.62865e-05

*RES
1 *208:9 *666:QN 9
2 *208:9 *208:10 0.369553
3 *208:11 *208:10 9
4 *208:7 *208:11 0.554398
5 *208:7 *208:8 0.184845
6 *208:6 *208:8 1.66319
7 *208:5 *208:6 0.184845
8 *208:4 *639:SD 9
9 *208:3 *208:5 3.32639
10 *208:2 *208:4 1.1088
11 *208:2 *208:3 9
*END

*D_NET *209 0.00207084

*CONN
*I *663:QN O *C 54.375 57.48 *L 0 *D SDFRRSJIX1
*I *657:SD I *C 48.93 65.73 *L 0.00147 *D SDFRRSJIX1

*CAP
1 *663:QN 5.28483e-05
2 *657:SD 5.28483e-05
3 *209:2 0.000207751
4 *209:3 0.00042093
5 *209:4 0.000207751
6 *209:5 0.000353887
7 *209:6 0.000353887
8 *209:7 0.00042093

*RES
1 *209:5 *663:QN 9
2 *209:5 *209:6 2.03275
3 *209:7 *209:6 9
4 *209:4 *657:SD 9
5 *209:3 *209:7 2.40244
6 *209:2 *209:4 1.29364
7 *209:2 *209:3 9
*END

*D_NET *210 0.00376487

*CONN
*I *662:QN O *C 79.575 55.08 *L 0 *D SDFRRSJIX1
*I *658:SD I *C 56.49 54.39 *L 0.00147 *D SDFRRSJIX1

*CAP
1 *662:QN 5.28621e-05
2 *658:SD 5.28621e-05
3 *210:4 4.57042e-05
4 *210:5 0.00173737
5 *210:6 6.93516e-05
6 *210:7 0.00173737
7 *210:8 6.93516e-05

*RES
1 *210:4 *658:SD 9.00005
2 *210:3 *210:4 0.25683
3 *210:5 *210:4 9.00005
4 *210:5 *210:7 10.1639996
5 *210:8 *662:QN 9.00005
6 *210:6 *210:7 9.00005
7 *210:6 *210:8 0.184868
8 *210:2 *210:6 0.0811122
*END

*D_NET *211 0.0016861

*CONN
*I *666:SD I *C 82.11 92.19 *L 0.00147 *D SDFRRSJIX1
*I *661:QN O *C 90.495 87.72 *L 0 *D SDFRRSJIX1

*CAP
1 *666:SD 5.28491e-05
2 *661:QN 5.28491e-05
3 *211:2 0.00018676
4 *211:3 0.000131539
5 *211:4 0.00018676
6 *211:5 0.00013886
7 *211:6 0.000199361
8 *211:7 0.0002067
9 *211:8 0.000199361
10 *211:9 6.58406e-05
11 *211:10 6.58406e-05
12 *211:11 0.000199379

*RES
1 *211:9 *661:QN 9
2 *211:9 *211:10 0.369553
3 *211:11 *211:10 9
4 *211:7 *211:11 1.29364
5 *211:7 *211:8 0.184845
6 *211:6 *211:8 1.47835
7 *211:5 *211:6 0.184845
8 *211:4 *666:SD 9
9 *211:3 *211:5 0.92395
10 *211:2 *211:4 1.1088
11 *211:2 *211:3 9
*END

*D_NET *212 0.00200564

*CONN
*I *668:SD I *C 56.49 58.17 *L 0.00147 *D SDFRRSJIX1
*I *658:QN O *C 66.555 55.08 *L 0 *D SDFRRSJIX1

*CAP
1 *668:SD 5.28528e-05
2 *658:QN 5.28528e-05
3 *212:2 0.00016928
4 *212:3 0.00066854
5 *212:4 0.00016928
6 *212:5 0.000112153
7 *212:6 0.000112153
8 *212:7 0.00066854

*RES
1 *212:5 *658:QN 9
2 *212:5 *212:6 0.554398
3 *212:7 *212:6 9
4 *212:4 *668:SD 9
5 *212:3 *212:7 4.43518
6 *212:2 *212:4 0.92395
7 *212:2 *212:3 9
*END

*D_NET *213 0.00549004

*CONN
*I *657:QN O *C 58.995 65.04 *L 0 *D SDFRRSJIX1
*I *610:SD I *C 24.15 65.73 *L 0.00147 *D SDFRRQJIX1

*CAP
1 *657:QN 5.28437e-05
2 *610:SD 5.28437e-05
3 *213:4 4.57156e-05
4 *213:5 0.000582316
5 *213:6 0.00086991
6 *213:7 0.000589856
7 *213:8 0.000869565
8 *213:9 0.000165752
9 *213:10 0.000317938
10 *213:11 0.000165752
11 *213:12 0.000317938
12 *213:13 0.000450904
13 *213:14 0.000259626
14 *213:15 0.000450904
15 *213:16 4.57156e-05
16 *213:17 0.000252444

*RES
1 *213:3 *213:16 0.256805
2 *213:16 *657:QN 9
3 *213:17 *213:16 9
4 *213:14 *213:17 1.66319
5 *213:14 *213:15 0.184845
6 *213:13 *213:15 3.14154
7 *213:12 *213:13 0.184845
8 *213:10 *213:12 2.03275
9 *213:10 *213:11 0.184845
10 *213:9 *213:11 0.92395
11 *213:8 *213:9 0.184845
12 *213:6 *213:8 3.88078
13 *213:6 *213:7 0.184845
14 *213:5 *213:7 3.69594
15 *213:4 *610:SD 9
16 *213:4 *213:5 9
17 *213:2 *213:4 0.256805
*END

*D_NET *214 0.00271388

*CONN
*I *661:SD I *C 80.43 88.41 *L 0.00147 *D SDFRRSJIX1
*I *656:QN O *C 90.075 80.16 *L 0 *D SDFRRSJIX1

*CAP
1 *661:SD 5.2853e-05
2 *656:QN 5.2853e-05
3 *214:2 0.00040318
4 *214:3 0.000107299
5 *214:4 0.00040318
6 *214:5 0.00011462
7 *214:6 0.00029828
8 *214:7 0.000284708
9 *214:8 0.00029828
10 *214:9 0.000210618
11 *214:10 0.000210618
12 *214:11 0.000277387

*RES
1 *214:9 *656:QN 9
2 *214:9 *214:10 1.29364
3 *214:11 *214:10 9
4 *214:7 *214:11 1.84804
5 *214:7 *214:8 0.184845
6 *214:6 *214:8 1.84804
7 *214:5 *214:6 0.184845
8 *214:4 *661:SD 9
9 *214:3 *214:5 0.554398
10 *214:2 *214:4 2.03275
11 *214:2 *214:3 9
*END

*D_NET *215 0.00188978

*CONN
*I *654:SD I *C 46.41 46.83 *L 0.00147 *D SDFRRQJIX1
*I *653:QN O *C 56.055 49.92 *L 0 *D SDFRRSJIX1

*CAP
1 *654:SD 5.28544e-05
2 *653:QN 5.28544e-05
3 *215:2 9.76934e-05
4 *215:3 9.76934e-05
5 *215:4 0.00060588
6 *215:5 0.000188471
7 *215:6 0.00060588
8 *215:7 0.000188471

*RES
1 *215:7 *653:QN 9
2 *215:5 *215:7 0.92395
3 *215:6 *215:5 9
4 *215:4 *215:6 4.25034
5 *215:3 *215:4 9
6 *215:2 *215:3 0.554398
7 *654:SD *215:2 9
*END

*D_NET *216 0.00341023

*CONN
*I *652:QN O *C 58.155 72.6 *L 0 *D SDFRRSJIX1
*I *616:SD I *C 38.85 69.51 *L 0.00147 *D SDFRRQJIX1

*CAP
1 *652:QN 5.28531e-05
2 *616:SD 5.28531e-05
3 *216:3 0.000294768
4 *216:4 0.000294768
5 *216:5 0.00110176
6 *216:6 0.00113901
7 *216:7 0.000232877
8 *216:8 4.57099e-05
9 *216:9 0.000195631

*RES
1 *216:3 *616:SD 9
2 *216:3 *216:4 1.1088
3 *216:5 *216:4 9
4 *216:5 *216:6 7.20717
5 *216:6 *216:7 0.369553
6 *216:7 *216:9 1.29364
7 *216:8 *216:9 9
8 *216:8 *652:QN 9
9 *216:2 *216:8 0.0439453
*END

*D_NET *217 0.0006212

*CONN
*I *656:SD I *C 80.01 80.85 *L 0.00147 *D SDFRRSJIX1
*I *651:QN O *C 77.895 80.16 *L 0 *D SDFRRSJIX1

*CAP
1 *656:SD 8.39311e-05
2 *651:QN 5.28497e-05
3 *217:2 6.37688e-05
4 *217:3 0.000191369
5 *217:4 0.00022928

*RES
1 *217:4 *656:SD 9
2 *217:3 *217:4 0.92395
3 *217:2 *217:3 0.184845
4 *651:QN *217:2 9
*END

*D_NET *218 0.055001

*CONN
*I *772:Q O *C 58.17 51.03 *L 0 *D INVJIX0
*I *769:A I *C 67.83 92.61 *L 0.00153 *D AND2JIX1
*I *767:A I *C 60.69 69.93 *L 0.00158 *D AO22JIX0
*I *766:A I *C 85.05 85.05 *L 0.00158 *D AO22JIX0
*I *765:A I *C 108.15 50.19 *L 0.00158 *D AO22JIX0
*I *764:A I *C 59.43 62.37 *L 0.00158 *D AO22JIX0
*I *763:A I *C 82.11 27.51 *L 0.00158 *D AO22JIX0
*I *762:A I *C 71.61 47.25 *L 0.00158 *D AO22JIX0
*I *761:A I *C 49.77 27.51 *L 0.00158 *D AO22JIX0
*I *760:A I *C 78.75 92.61 *L 0.00158 *D AO22JIX0
*I *759:A I *C 56.91 42.63 *L 0.00158 *D AO22JIX0
*I *758:A I *C 51.87 39.69 *L 0.00158 *D AO22JIX0
*I *757:A I *C 52.71 62.37 *L 0.00158 *D AO22JIX0
*I *756:A I *C 76.65 57.75 *L 0.00158 *D AO22JIX0
*I *755:A I *C 71.19 27.51 *L 0.00158 *D AO22JIX0
*I *754:A I *C 53.13 27.51 *L 0.00158 *D AO22JIX0
*I *753:A I *C 57.33 47.25 *L 0.00158 *D AO22JIX0
*I *752:A I *C 107.31 65.31 *L 0.00158 *D AO22JIX0
*I *750:A I *C 60.69 27.51 *L 0.00158 *D AO22JIX0
*I *749:A I *C 48.93 39.69 *L 0.00158 *D AO22JIX0
*I *748:A I *C 53.55 69.93 *L 0.00158 *D AO22JIX0
*I *747:A I *C 72.87 77.49 *L 0.00158 *D AO22JIX0
*I *746:A I *C 108.99 35.07 *L 0.00158 *D AO22JIX0
*I *745:A I *C 106.89 72.87 *L 0.00158 *D AO22JIX0
*I *744:A I *C 80.01 77.49 *L 0.00158 *D AO22JIX0
*I *743:A I *C 51.03 54.81 *L 0.00158 *D AO22JIX0
*I *742:A I *C 97.23 87.99 *L 0.00158 *D AO22JIX0
*I *741:A I *C 106.05 35.07 *L 0.00158 *D AO22JIX0
*I *740:A I *C 103.53 85.05 *L 0.00158 *D AO22JIX0
*I *739:A I *C 94.29 87.99 *L 0.00158 *D AO22JIX0
*I *738:A I *C 107.73 54.81 *L 0.00158 *D AO22JIX0
*I *737:A I *C 106.89 85.05 *L 0.00158 *D AO22JIX0
*I *683:B I *C 63.21 80.43 *L 0.00163 *D ON21JIX0
*I *682:B I *C 50.19 85.05 *L 0.00163 *D ON21JIX0

*CAP
1 *772:Q 5.1534e-05
2 *769:A 5.28534e-05
3 *767:A 5.28534e-05
4 *766:A 5.28534e-05
5 *765:A 5.28534e-05
6 *764:A 5.28534e-05
7 *763:A 5.28534e-05
8 *762:A 5.28534e-05
9 *761:A 5.28534e-05
10 *760:A 5.28534e-05
11 *759:A 5.28534e-05
12 *758:A 5.28534e-05
13 *757:A 5.28534e-05
14 *756:A 5.28534e-05
15 *755:A 5.28534e-05
16 *754:A 5.28534e-05
17 *753:A 5.28534e-05
18 *752:A 5.28534e-05
19 *750:A 5.28534e-05
20 *749:A 5.28534e-05
21 *748:A 5.28534e-05
22 *747:A 5.28534e-05
23 *746:A 5.28534e-05
24 *745:A 5.28534e-05
25 *744:A 5.28534e-05
26 *743:A 5.28534e-05
27 *742:A 5.28534e-05
28 *741:A 5.28534e-05
29 *740:A 5.28534e-05
30 *739:A 5.28534e-05
31 *738:A 5.28534e-05
32 *737:A 5.28534e-05
33 *683:B 8.39374e-05
34 *682:B 8.39374e-05
35 *218:44 0.000501355
36 *218:45 0.000440586
37 *218:46 0.000196347
38 *218:47 0.000273898
39 *218:48 0.000218644
40 *218:49 0.000129666
41 *218:50 7.62588e-05
42 *218:51 0.000195661
43 *218:52 0.000237484
44 *218:53 0.000232259
45 *218:54 5.51227e-05
46 *218:55 0.000103754
47 *218:56 0.000101432
48 *218:57 0.000101432
49 *218:58 0.000336489
50 *218:59 0.000448423
51 *218:60 0.000687094
52 *218:61 0.000372111
53 *218:62 0.000198669
54 *218:63 0.000367071
55 *218:64 0.000205978
56 *218:65 0.000124363
57 *218:66 0.00018471
58 *218:67 0.000206347
59 *218:68 0.00056669
60 *218:69 0.000206347
61 *218:70 8.16681e-05
62 *218:71 0.00056128
63 *218:72 0.000179512
64 *218:73 7.62588e-05
65 *218:74 7.62588e-05
66 *218:75 0.000237484
67 *218:76 0.000318915
68 *218:77 0.000318915
69 *218:78 0.000160777
70 *218:79 0.000289889
71 *218:80 0.000468503
72 *218:81 0.000150618
73 *218:82 0.000267196
74 *218:83 0.000375225
75 *218:84 0.000506158
76 *218:85 0.000283266
77 *218:86 0.00112309
78 *218:87 0.000362242
79 *218:88 0.000776942
80 *218:89 0.000167347
81 *218:90 0.000341423
82 *218:91 0.000763036
83 *218:92 8.18529e-05
84 *218:93 0.000535078
85 *218:94 0.000106155
86 *218:95 0.00172928
87 *218:96 4.57025e-05
88 *218:97 0.00056128
89 *218:98 0.000503229
90 *218:99 0.000503229
91 *218:100 0.000283266
92 *218:101 0.000148507
93 *218:102 0.000468503
94 *218:103 0.000742296
95 *218:104 0.000148507
96 *218:105 0.000435889
97 *218:106 0.000742296
98 *218:107 0.000119745
99 *218:108 0.000415782
100 *218:109 0.000203366
101 *218:110 5.05313e-05
102 *218:111 0.000191043
103 *218:112 0.000396018
104 *218:113 0.000423962
105 *218:114 7.08494e-05
106 *218:115 7.08494e-05
107 *218:116 0.000365989
108 *218:117 4.57025e-05
109 *218:118 9.10092e-05
110 *218:119 4.57025e-05
111 *218:120 0.000322108
112 *218:121 0.000216322
113 *218:122 0.000126869
114 *218:123 0.000126869
115 *218:124 0.00083787
116 *218:125 0.000374143
117 *218:126 0.000317859
118 *218:127 0.000224528
119 *218:128 0.000745542
120 *218:129 0.000458265
121 *218:130 0.000752851
122 *218:131 0.000305484
123 *218:132 0.000757601
124 *218:133 0.000322108
125 *218:134 0.00114615
126 *218:135 0.00129505
127 *218:136 0.000686725
128 *218:137 0.000238276
129 *218:138 0.000238276
130 *218:139 0.000159457
131 *218:140 0.000317015
132 *218:141 0.000338863
133 *218:142 0.000122938
134 *218:143 0.000346093
135 *218:144 0.000437367
136 *218:145 0.000461854
137 *218:146 4.58872e-05
138 *218:147 0.000152122
139 *218:148 0.000132305
140 *218:149 0.000132305
141 *218:150 0.000464202
142 *218:151 0.000246931
143 *218:152 0.000462619
144 *218:153 0.000246931
145 *218:154 4.57025e-05
146 *218:155 0.000373246
147 *218:156 0.000205635
148 *218:157 0.000353851
149 *218:158 0.000644796
150 *218:159 0.000453357
151 *218:160 0.0001384
152 *218:161 0.000568247
153 *218:162 0.000175897
154 *218:163 4.57025e-05
155 *218:164 0.000746914
156 *218:165 4.57025e-05
157 *218:166 0.000298623
158 *218:167 0.000435282
159 *218:168 0.000119982
160 *218:169 7.62588e-05
161 *218:170 0.000279229
162 *218:171 0.000158428
163 *218:172 0.000397786
164 *218:173 0.000479533
165 *218:174 0.000629993
166 *218:175 4.57025e-05
167 *218:176 0.000307278
168 *218:177 0.000398023
169 *218:178 0.000427973
170 *218:179 0.000343112
171 *218:180 0.000343112
172 *218:181 0.000123175
173 *218:182 0.000166081
174 *218:183 0.000101907
175 *218:184 7.27493e-05
176 *218:185 0.000200357
177 *218:186 0.00013621
178 *218:187 0.00013621
179 *218:188 0.000105021
180 *218:189 0.000838688
181 *218:190 0.000762509
182 *218:191 4.16653e-05
183 *218:192 0.00012394
184 *218:193 4.90009e-05
185 *218:194 0.000238988
186 *218:195 0.000158455
187 *218:196 0.000246324
188 *218:197 6.01363e-05
189 *218:198 0.000369103
190 *218:199 0.000307278
191 *218:200 0.000369103
192 *218:201 4.57025e-05
193 *218:202 0.000692768
194 *218:203 0.00012394
195 *218:204 0.000958275
196 *218:205 0.000158455
197 *218:206 0.000279677

*RES
1 *218:73 *754:A 9
2 *218:73 *218:74 0.369553
3 *218:75 *218:74 9
4 *218:50 *761:A 9
5 *218:52 *218:75 1.47835
6 *218:50 *218:51 0.369553
7 *218:51 *218:52 9
8 *218:51 *218:53 0.739243
9 *218:44 *218:53 0.739243
10 *218:175 *741:A 9
11 *218:41 *218:175 0.256805
12 *218:117 *755:A 9
13 *218:43 *218:117 0.256805
14 *218:44 *218:45 2.95683
15 *218:176 *218:175 9
16 *218:118 *218:117 9
17 *218:98 *750:A 9
18 *218:45 *218:46 0.369553
19 *218:49 *749:A 9
20 *218:197 *765:A 9
21 *218:176 *218:199 1.29364
22 *218:118 *218:121 0.554398
23 *218:154 *763:A 9
24 *218:42 *218:154 0.256805
25 *218:98 *218:99 2.40244
26 *218:69 *758:A 9
27 *218:46 *218:47 0.554398
28 *218:47 *218:49 0.739243
29 *218:193 *218:197 0.184845
30 *218:198 *746:A 9
31 *218:198 *218:199 9
32 *218:40 *218:198 0.256805
33 *218:121 *218:127 1.29364
34 *218:155 *218:154 9
35 *218:100 *218:99 9
36 *218:67 *218:69 0.739243
37 *218:48 *218:47 9
38 *218:191 *218:193 0.0748444
39 *218:198 *218:200 1.47835
40 *218:127 *218:129 0.554398
41 *218:129 *218:155 2.40244
42 *218:85 *218:100 1.66319
43 *218:68 *218:67 9
44 *218:48 *218:68 1.29364
45 *218:192 *218:191 9
46 *218:201 *218:200 9
47 *218:39 *218:201 0.256805
48 *218:128 *218:129 9
49 *218:84 *218:85 9
50 *218:68 *218:87 2.21759
51 *218:192 *218:203 0.554398
52 *218:202 *218:201 9
53 *218:128 *218:130 5.17442
54 *218:84 *218:86 2.21759
55 *218:86 *218:87 9
56 *218:204 *218:203 9
57 *218:202 *218:204 5.17442
58 *218:130 *218:137 0.184845
59 *218:119 *762:A 9
60 *218:38 *218:119 0.256805
61 *218:88 *759:A 9
62 *218:86 *218:88 2.03275
63 *218:204 *218:206 2.03275
64 *218:137 *218:138 1.47835
65 *218:120 *218:119 9
66 *218:88 *218:89 0.739243
67 *218:205 *218:206 9
68 *218:131 *218:138 0.184845
69 *218:120 *218:133 2.21759
70 *218:89 *218:90 0.184845
71 *218:195 *218:205 0.554398
72 *218:131 *218:132 2.03275
73 *218:132 *218:133 9
74 *218:136 *756:A 9
75 *218:91 *753:A 9
76 *218:90 *218:91 1.29364
77 *218:92 *772:Q 0.577469
78 *218:194 *738:A 9
79 *218:194 *218:195 9
80 *218:132 *218:134 2.03275
81 *218:134 *218:136 2.58714
82 *218:91 *218:93 1.66319
83 *218:93 *218:92 9
84 *218:194 *218:196 0.739243
85 *218:135 *218:134 9
86 *218:93 *218:94 0.369553
87 *218:186 *218:196 0.184845
88 *218:95 *218:135 8.50081
89 *218:95 *218:94 9
90 *218:186 *218:187 0.92395
91 *218:59 *218:95 2.77199
92 *218:179 *218:187 0.184845
93 *218:58 *218:59 9
94 *218:179 *218:180 2.40244
95 *218:96 *764:A 9
96 *218:37 *218:96 0.256805
97 *218:60 *743:A 9
98 *218:58 *218:60 1.29364
99 *218:180 *218:188 0.184845
100 *218:97 *218:96 9
101 *218:60 *218:61 2.58714
102 *218:189 *752:A 9
103 *218:188 *218:189 0.554398
104 *218:71 *218:97 2.95683
105 *218:61 *218:65 0.184845
106 *218:189 *218:190 2.95683
107 *218:70 *757:A 9
108 *218:70 *218:71 9
109 *218:65 *218:66 1.1088
110 *218:181 *218:190 0.184845
111 *218:55 *682:B 9
112 *218:70 *218:72 0.369553
113 *218:66 *218:72 0.554398
114 *218:182 *745:A 9
115 *218:181 *218:182 0.369553
116 *218:54 *218:55 0.184845
117 *218:72 *218:76 0.184845
118 *218:182 *218:183 0.369553
119 *218:54 *218:57 0.184845
120 *218:76 *218:77 1.84804
121 *218:177 *218:183 0.369553
122 *218:56 *218:57 0.369553
123 *218:77 *218:78 0.184845
124 *218:81 *748:A 9
125 *218:177 *218:178 2.58714
126 *218:184 *737:A 9
127 *218:56 *218:64 0.184845
128 *218:104 *767:A 9
129 *218:78 *218:79 0.554398
130 *218:79 *218:81 0.554398
131 *218:173 *218:178 0.554398
132 *218:184 *218:185 0.369553
133 *218:62 *218:64 0.739243
134 *218:101 *218:104 0.554398
135 *218:80 *218:79 9
136 *218:169 *740:A 9
137 *218:173 *218:174 2.77199
138 *218:174 *218:185 0.92395
139 *218:63 *218:62 9
140 *218:102 *218:101 9
141 *218:80 *218:102 3.14154
142 *218:169 *218:170 0.369553
143 *218:170 *218:174 0.554398
144 *218:63 *218:83 2.40244
145 *218:103 *218:102 9
146 *218:170 *218:171 0.554398
147 *218:82 *218:83 0.184845
148 *218:103 *218:106 5.54398
149 *218:172 *218:171 9
150 *218:82 *218:105 1.84804
151 *218:105 *218:106 9
152 *218:167 *218:172 2.40244
153 *218:105 *218:111 1.1088
154 *218:165 *742:A 9
155 *218:35 *218:165 0.256805
156 *218:167 *218:168 0.369553
157 *218:110 *218:111 9
158 *218:163 *739:A 9
159 *218:36 *218:163 0.256805
160 *218:166 *218:165 9
161 *218:166 *218:168 0.369553
162 *218:109 *683:B 9
163 *218:109 *218:110 0.184845
164 *218:164 *218:163 9
165 *218:164 *218:166 1.29364
166 *218:107 *218:109 0.554398
167 *218:161 *218:164 3.32639
168 *218:108 *218:107 9
169 *218:161 *218:162 0.369553
170 *218:122 *747:A 9
171 *218:108 *218:113 1.66319
172 *218:160 *218:162 0.739243
173 *218:148 *744:A 9
174 *218:122 *218:123 0.739243
175 *218:112 *218:113 0.184845
176 *218:159 *218:160 9
177 *218:148 *218:149 0.739243
178 *218:124 *218:123 9
179 *218:112 *218:124 2.58714
180 *218:114 *769:A 9
181 *218:158 *766:A 9
182 *218:158 *218:159 1.66319
183 *218:150 *218:149 9
184 *218:124 *218:150 3.14154
185 *218:114 *218:115 0.369553
186 *218:156 *218:158 0.92395
187 *218:151 *218:150 9
188 *218:116 *218:115 9
189 *218:157 *218:156 9
190 *218:151 *218:153 1.66319
191 *218:116 *218:125 2.21759
192 *218:152 *218:157 2.21759
193 *218:152 *218:153 9
194 *218:125 *218:126 0.184845
195 *218:142 *218:152 0.739243
196 *218:126 *218:140 2.03275
197 *218:141 *218:142 9
198 *218:139 *218:140 0.184845
199 *218:141 *218:143 2.21759
200 *218:139 *218:147 0.554398
201 *218:143 *218:144 0.184845
202 *218:146 *218:147 9
203 *218:145 *760:A 9
204 *218:144 *218:145 2.03275
205 *218:145 *218:146 0.184845
206 *218:34 *218:145 0.0811615
*END

*D_NET *219 0.00108556

*CONN
*I *771:Q O *C 73.29 91.77 *L 0 *D INVJIX0
*I *768:A I *C 74.55 92.61 *L 0.0016 *D NA2JIX0
*I *694:C I *C 70.77 92.61 *L 0.00162 *D ON31JIX0

*CAP
1 *771:Q 5.75013e-05
2 *768:A 5.75013e-05
3 *694:C 5.28517e-05
4 *219:3 7.86383e-05
5 *219:4 0.000116128
6 *219:5 0.00017203
7 *219:6 8.32088e-05
8 *219:7 0.00030471
9 *219:8 0.000162991

*RES
1 *768:A *219:8 0.577469
2 *771:Q *219:7 0.577469
3 *219:7 *219:8 0.866272
4 *219:5 *219:7 1.15494
5 *219:6 *219:5 9
6 *219:4 *219:6 0.369553
7 *219:3 *219:4 0.369553
8 *694:C *219:3 9
*END

*D_NET *220 0.00141983

*CONN
*I *770:Q O *C 68.25 88.83 *L 0 *D INVJIX0
*I *695:A I *C 70.35 87.99 *L 0.00158 *D AO21JIX0
*I *684:C I *C 74.13 87.99 *L 0.00158 *D AO32JIX0

*CAP
1 *770:Q 2.87512e-05
2 *695:A 5.28501e-05
3 *684:C 5.7498e-05
4 *220:3 0.00012975
5 *220:4 6.24605e-05
6 *220:5 0.000137531
7 *220:6 5.51408e-05
8 *220:7 7.62711e-05
9 *220:8 0.000113769
10 *220:9 7.66788e-05
11 *220:10 0.000269399
12 *220:11 6.93592e-05
13 *220:12 0.00029037

*RES
1 *684:C *220:12 0.577469
2 *220:10 *220:12 2.31001
3 *220:11 *220:10 9
4 *220:7 *695:A 9
5 *220:9 *220:11 0.184845
6 *220:7 *220:8 0.369553
7 *220:8 *220:9 0.184845
8 *220:4 *220:8 0.184845
9 *220:4 *220:6 0.184845
10 *220:5 *220:6 9
11 *220:3 *220:5 1.15494
12 *770:Q *220:3 0.288803
*END

*D_NET *221 0.0703565

*CONN
*I *769:Q O *C 69.51 93.03 *L 0 *D AND2JIX1
*I *736:A I *C 27.51 87.99 *L 0.00158 *D AO22JIX0
*I *735:A I *C 24.57 87.99 *L 0.00158 *D AO22JIX0
*I *734:A I *C 31.29 87.99 *L 0.00158 *D AO22JIX0
*I *733:A I *C 40.11 77.49 *L 0.00158 *D AO22JIX0
*I *732:A I *C 24.15 80.43 *L 0.00158 *D AO22JIX0
*I *731:A I *C 27.51 80.43 *L 0.00158 *D AO22JIX0
*I *730:A I *C 37.17 77.49 *L 0.00158 *D AO22JIX0
*I *729:A I *C 23.73 69.93 *L 0.00158 *D AO22JIX0
*I *728:A I *C 34.65 65.31 *L 0.00158 *D AO22JIX0
*I *727:A I *C 23.73 62.37 *L 0.00158 *D AO22JIX0
*I *726:A I *C 32.55 57.75 *L 0.00158 *D AO22JIX0
*I *725:A I *C 24.57 57.75 *L 0.00158 *D AO22JIX0
*I *724:A I *C 23.73 50.19 *L 0.00158 *D AO22JIX0
*I *723:A I *C 38.43 35.07 *L 0.00158 *D AO22JIX0
*I *722:A I *C 23.73 47.25 *L 0.00158 *D AO22JIX0
*I *721:A I *C 38.43 47.25 *L 0.00158 *D AO22JIX0
*I *720:A I *C 24.57 35.07 *L 0.00158 *D AO22JIX0
*I *719:A I *C 27.09 50.19 *L 0.00158 *D AO22JIX0
*I *718:A I *C 27.93 27.51 *L 0.00158 *D AO22JIX0
*I *717:A I *C 41.37 27.51 *L 0.00158 *D AO22JIX0
*I *716:A I *C 38.01 27.51 *L 0.00158 *D AO22JIX0
*I *715:A I *C 106.89 110.67 *L 0.00158 *D AO22JIX0
*I *714:A I *C 24.57 27.51 *L 0.00158 *D AO22JIX0
*I *713:A I *C 112.35 107.73 *L 0.00158 *D AO22JIX0
*I *712:A I *C 110.25 103.11 *L 0.00158 *D AO22JIX0
*I *711:A I *C 90.09 103.11 *L 0.00158 *D AO22JIX0
*I *710:A I *C 100.59 110.67 *L 0.00158 *D AO22JIX0
*I *709:A I *C 95.13 110.67 *L 0.00158 *D AO22JIX0
*I *708:A I *C 86.73 103.11 *L 0.00158 *D AO22JIX0
*I *707:A I *C 83.79 103.11 *L 0.00158 *D AO22JIX0
*I *706:A I *C 80.85 110.67 *L 0.00158 *D AO22JIX0
*I *705:A I *C 64.89 110.67 *L 0.00158 *D AO22JIX0
*I *704:A I *C 72.45 110.67 *L 0.00158 *D AO22JIX0
*I *703:A I *C 68.25 110.67 *L 0.00158 *D AO22JIX0
*I *702:A I *C 65.31 100.17 *L 0.00158 *D AO22JIX0
*I *701:A I *C 59.85 110.67 *L 0.00158 *D AO22JIX0
*I *700:A I *C 56.49 103.11 *L 0.00158 *D AO22JIX0
*I *699:A I *C 52.29 100.17 *L 0.00158 *D AO22JIX0
*I *698:A I *C 49.35 100.17 *L 0.00158 *D AO22JIX0
*I *697:A I *C 39.69 110.67 *L 0.00158 *D AO22JIX0
*I *696:A I *C 29.61 110.67 *L 0.00158 *D AO22JIX0
*I *693:A I *C 49.35 110.67 *L 0.00158 *D AO22JIX0
*I *692:A I *C 34.65 110.67 *L 0.00158 *D AO22JIX0
*I *691:A I *C 23.73 100.17 *L 0.00158 *D AO22JIX0
*I *690:A I *C 33.81 80.43 *L 0.00158 *D AO22JIX0
*I *689:A I *C 40.11 95.55 *L 0.00158 *D AO22JIX0
*I *688:A I *C 23.73 95.55 *L 0.00158 *D AO22JIX0
*I *687:A I *C 25.83 110.67 *L 0.00158 *D AO22JIX0
*I *681:C I *C 56.91 77.49 *L 0.00159 *D AO21JIX0
*I *551:A I *C 38.43 54.81 *L 0.00323 *D INVJIX1

*CAP
1 *769:Q 0.000111478
2 *736:A 5.28518e-05
3 *735:A 5.28518e-05
4 *734:A 5.28518e-05
5 *733:A 5.28518e-05
6 *732:A 5.28518e-05
7 *731:A 5.28518e-05
8 *730:A 5.28518e-05
9 *729:A 5.28518e-05
10 *728:A 5.28518e-05
11 *727:A 5.28518e-05
12 *726:A 5.28518e-05
13 *725:A 5.28518e-05
14 *724:A 5.28518e-05
15 *723:A 5.28518e-05
16 *722:A 5.28518e-05
17 *721:A 5.28518e-05
18 *720:A 5.28518e-05
19 *719:A 5.28518e-05
20 *718:A 5.28518e-05
21 *717:A 5.28518e-05
22 *716:A 5.28518e-05
23 *715:A 5.28518e-05
24 *714:A 5.28518e-05
25 *713:A 5.28518e-05
26 *712:A 5.28518e-05
27 *711:A 5.28518e-05
28 *710:A 5.28518e-05
29 *709:A 5.28518e-05
30 *708:A 5.28518e-05
31 *707:A 5.28518e-05
32 *706:A 5.28518e-05
33 *705:A 5.28518e-05
34 *704:A 5.28518e-05
35 *703:A 5.28518e-05
36 *702:A 5.28518e-05
37 *701:A 5.28518e-05
38 *700:A 5.28518e-05
39 *699:A 5.28518e-05
40 *698:A 5.28518e-05
41 *697:A 5.28518e-05
42 *696:A 5.28518e-05
43 *693:A 5.28518e-05
44 *692:A 5.28518e-05
45 *691:A 5.28518e-05
46 *690:A 5.28518e-05
47 *689:A 5.28518e-05
48 *688:A 5.28518e-05
49 *687:A 5.28518e-05
50 *681:C 5.28518e-05
51 *551:A 5.28518e-05
52 *221:60 0.000415527
53 *221:61 0.000354757
54 *221:62 0.000425159
55 *221:63 0.000425159
56 *221:64 9.06498e-05
57 *221:65 0.000458091
58 *221:66 0.000735209
59 *221:67 0.000396666
60 *221:68 0.000542134
61 *221:69 0.000571838
62 *221:70 0.000393741
63 *221:71 0.000423797
64 *221:72 0.000649426
65 *221:73 0.00090491
66 *221:74 0.000460158
67 *221:75 0.000280598
68 *221:76 0.000261233
69 *221:77 0.000165969
70 *221:78 9.02212e-05
71 *221:79 0.000322229
72 *221:80 0.000275051
73 *221:81 7.22677e-05
74 *221:82 0.00027374
75 *221:83 0.000447021
76 *221:84 0.000202531
77 *221:85 0.000177971
78 *221:86 0.000644131
79 *221:87 0.000659134
80 *221:88 0.00028312
81 *221:89 0.000190705
82 *221:90 0.000204019
83 *221:91 0.000199051
84 *221:92 0.000345478
85 *221:93 0.000185738
86 *221:94 0.000342679
87 *221:95 0.000342679
88 *221:96 4.57158e-05
89 *221:97 8.06393e-05
90 *221:98 0.000177467
91 *221:99 0.000305083
92 *221:100 5.93321e-05
93 *221:101 0.000155403
94 *221:102 0.000193327
95 *221:103 0.000173912
96 *221:104 0.000182006
97 *221:105 9.6752e-05
98 *221:106 0.000457738
99 *221:107 0.000246154
100 *221:108 0.000495637
101 *221:109 0.000172701
102 *221:110 8.25304e-05
103 *221:111 0.00044518
104 *221:112 0.00048313
105 *221:113 0.000270109
106 *221:114 5.93321e-05
107 *221:115 0.000108528
108 *221:116 0.000108528
109 *221:117 0.000349941
110 *221:118 0.000281431
111 *221:119 0.000281431
112 *221:120 4.73296e-05
113 *221:121 0.000181653
114 *221:122 0.000578823
115 *221:123 0.000155681
116 *221:124 9.7105e-05
117 *221:125 0.000230142
118 *221:126 0.000447046
119 *221:127 0.00015442
120 *221:128 4.57158e-05
121 *221:129 0.000186797
122 *221:130 0.000342704
123 *221:131 0.000107343
124 *221:132 0.000645139
125 *221:133 0.000107343
126 *221:134 0.00017845
127 *221:135 0.00025508
128 *221:136 0.000389479
129 *221:137 0.000169675
130 *221:138 0.000447046
131 *221:139 0.000169675
132 *221:140 0.000453375
133 *221:141 0.000212214
134 *221:142 0.000460461
135 *221:143 0.000101593
136 *221:144 0.000347697
137 *221:145 4.57158e-05
138 *221:146 0.000435044
139 *221:147 0.000144031
140 *221:148 0.000735209
141 *221:149 0.000144031
142 *221:150 6.06434e-05
143 *221:151 0.000764661
144 *221:152 6.06434e-05
145 *221:153 0.000286322
146 *221:154 0.000219375
147 *221:155 0.000286322
148 *221:156 0.000278304
149 *221:157 0.00104622
150 *221:158 0.00101606
151 *221:159 7.6277e-05
152 *221:160 0.000327525
153 *221:161 0.000245095
154 *221:162 0.000272983
155 *221:163 0.000412551
156 *221:164 0.000463588
157 *221:165 8.02863e-05
158 *221:166 0.000106611
159 *221:167 0.000641332
160 *221:168 0.000802585
161 *221:169 0.000340158
162 *221:170 0.000296812
163 *221:171 0.000206389
164 *221:172 0.000266629
165 *221:173 0.000120505
166 *221:174 0.000167961
167 *221:175 0.00105247
168 *221:176 6.89645e-05
169 *221:177 4.57158e-05
170 *221:178 0.00031416
171 *221:179 0.000920518
172 *221:180 0.000927856
173 *221:181 7.6277e-05
174 *221:182 7.6277e-05
175 *221:183 0.000245095
176 *221:184 0.000117126
177 *221:185 0.00106319
178 *221:186 0.00041946
179 *221:187 0.00041946
180 *221:188 0.000330929
181 *221:189 0.000465252
182 *221:190 0.000192621
183 *221:191 0.000155832
184 *221:192 0.000170054
185 *221:193 0.000255181
186 *221:194 0.00140723
187 *221:195 0.000106611
188 *221:196 0.00025334
189 *221:197 0.00025334
190 *221:198 0.000501865
191 *221:199 0.000160446
192 *221:200 0.000109158
193 *221:201 0.000224443
194 *221:202 0.00032344
195 *221:203 7.81934e-05
196 *221:204 6.66447e-05
197 *221:205 6.66447e-05
198 *221:206 0.0016525
199 *221:207 0.000117328
200 *221:208 0.000449089
201 *221:209 6.19546e-05
202 *221:210 0.00115704
203 *221:211 6.19546e-05
204 *221:212 0.000164582
205 *221:213 0.000449089
206 *221:214 6.30388e-05
207 *221:215 0.00071017
208 *221:216 6.30388e-05
209 *221:217 0.000146628
210 *221:218 0.000146628
211 *221:219 0.000156412
212 *221:220 8.80274e-05
213 *221:221 0.000611678
214 *221:222 0.000340611
215 *221:223 0.000922535
216 *221:224 0.000100282
217 *221:225 0.000669977
218 *221:226 9.87188e-05
219 *221:227 0.000140249
220 *221:228 6.06434e-05
221 *221:229 0.000783169
222 *221:230 6.06434e-05
223 *221:231 6.06434e-05
224 *221:232 0.000499848
225 *221:233 0.000138458
226 *221:234 9.20115e-05
227 *221:235 0.00057852
228 *221:236 0.000141737
229 *221:237 0.000141737
230 *221:238 0.000867364
231 *221:239 4.57158e-05
232 *221:240 0.000208558
233 *221:241 0.000675978
234 *221:242 0.000360532
235 *221:243 0.000675978
236 *221:244 0.000938699
237 *221:245 4.57158e-05
238 *221:246 0.000552825
239 *221:247 4.57158e-05
240 *221:248 0.000400851
241 *221:249 0.000149705
242 *221:250 0.000149705
243 *221:251 0.000990567
244 *221:252 0.0001492
245 *221:253 0.0001492
246 *221:254 0.000757601
247 *221:255 0.000508623
248 *221:256 0.000245398
249 *221:257 0.000642441
250 *221:258 0.000148015
251 *221:259 0.000416888
252 *221:260 4.57158e-05
253 *221:261 0.000325255
254 *221:262 0.000118614
255 *221:263 9.40539e-05
256 *221:264 0.000155958
257 *221:265 0.000295879
258 *221:266 0.00025856

*RES
1 *221:181 *717:A 9
2 *221:181 *221:182 0.369553
3 *221:183 *221:182 9
4 *221:159 *716:A 9
5 *221:161 *221:183 1.47835
6 *221:159 *221:160 0.369553
7 *221:160 *221:161 9
8 *221:160 *221:162 1.47835
9 *221:162 *221:163 0.184845
10 *221:164 *723:A 9
11 *221:163 *221:164 1.47835
12 *221:164 *221:165 0.369553
13 *221:165 *221:171 0.184845
14 *221:171 *221:172 1.1088
15 *221:96 *714:A 9
16 *221:58 *221:96 0.237305
17 *221:128 *718:A 9
18 *221:59 *221:128 0.256805
19 *221:157 *221:172 0.554398
20 *221:97 *221:96 9
21 *221:129 *221:128 9
22 *221:166 *721:A 9
23 *221:157 *221:158 4.25034
24 *221:97 *221:107 0.369553
25 *221:107 *221:129 1.1088
26 *221:166 *221:167 0.369553
27 *221:158 *221:167 0.369553
28 *221:170 *551:A 9
29 *221:106 *221:107 9
30 *221:167 *221:168 1.84804
31 *221:168 *221:170 0.92395
32 *221:106 *221:108 2.21759
33 *221:169 *221:168 9
34 *221:98 *221:108 0.369553
35 *221:100 *720:A 9
36 *221:142 *726:A 9
37 *221:144 *221:169 2.03275
38 *221:98 *221:99 0.739243
39 *221:99 *221:100 0.369553
40 *221:140 *221:142 2.58714
41 *221:143 *221:144 0.184845
42 *221:60 *221:99 0.92395
43 *221:141 *221:140 9
44 *221:141 *221:143 0.554398
45 *221:60 *221:61 1.84804
46 *221:115 *719:A 9
47 *221:136 *221:141 0.554398
48 *221:61 *221:72 0.554398
49 *221:115 *221:116 0.739243
50 *221:130 *221:136 1.29364
51 *221:227 *769:Q 1.44374
52 *221:73 *722:A 9
53 *221:72 *221:73 3.88078
54 *221:117 *221:116 9
55 *221:117 *221:130 0.554398
56 *221:226 *221:227 0.288803
57 *221:74 *724:A 9
58 *221:73 *221:74 1.29364
59 *221:76 *221:117 1.47835
60 *221:224 *221:226 0.577469
61 *221:74 *221:75 0.739243
62 *221:75 *221:76 9
63 *221:225 *221:224 9
64 *221:75 *221:77 0.554398
65 *221:223 *221:225 3.88078
66 *221:62 *221:77 0.184845
67 *221:222 *221:223 1.29364
68 *221:62 *221:63 2.58714
69 *221:101 *725:A 9
70 *221:204 *681:C 9
71 *221:56 *221:204 0.0811615
72 *221:220 *221:222 0.554398
73 *221:63 *221:78 0.184845
74 *221:101 *221:102 0.92395
75 *221:204 *221:205 0.184845
76 *221:221 *221:220 9
77 *221:78 *221:79 0.369553
78 *221:79 *221:102 0.369553
79 *221:149 *728:A 9
80 *221:206 *221:205 9
81 *221:206 *221:221 4.25034
82 *221:80 *727:A 9
83 *221:79 *221:80 1.1088
84 *221:147 *221:149 0.739243
85 *221:139 *734:A 9
86 *221:185 *221:206 6.46806
87 *221:80 *221:81 0.184845
88 *221:148 *221:147 9
89 *221:137 *221:139 0.554398
90 *221:177 *733:A 9
91 *221:57 *221:177 0.256805
92 *221:184 *221:185 0.184845
93 *221:64 *221:81 0.184845
94 *221:66 *221:148 4.98958
95 *221:138 *221:137 9
96 *221:178 *221:177 9
97 *221:178 *221:184 0.92395
98 *221:64 *221:65 0.369553
99 *221:65 *221:66 9
100 *221:126 *221:138 1.66319
101 *221:127 *736:A 9
102 *221:154 *221:178 1.29364
103 *221:65 *221:67 1.66319
104 *221:125 *221:126 9
105 *221:125 *221:127 0.554398
106 *221:153 *730:A 9
107 *221:153 *221:154 9
108 *221:67 *221:82 0.184845
109 *221:124 *221:125 0.554398
110 *221:153 *221:155 1.29364
111 *221:83 *729:A 9
112 *221:82 *221:83 1.1088
113 *221:119 *221:124 0.184845
114 *221:145 *690:A 9
115 *221:55 *221:145 0.256805
116 *221:156 *221:155 9
117 *221:83 *221:84 0.739243
118 *221:118 *221:119 1.47835
119 *221:146 *221:145 9
120 *221:146 *221:156 1.47835
121 *221:68 *221:84 0.184845
122 *221:120 *731:A 9
123 *221:118 *221:123 0.184845
124 *221:134 *221:146 1.29364
125 *221:68 *221:69 3.32639
126 *221:120 *221:121 0.184845
127 *221:121 *221:123 0.554398
128 *221:134 *221:135 0.184845
129 *221:69 *221:89 0.369553
130 *221:122 *221:121 9
131 *221:122 *221:135 1.47835
132 *221:90 *732:A 9
133 *221:89 *221:90 0.554398
134 *221:92 *221:122 1.47835
135 *221:90 *221:91 0.184845
136 *221:91 *221:92 9
137 *221:91 *221:93 0.554398
138 *221:217 *702:A 9
139 *221:70 *221:93 0.369553
140 *221:217 *221:218 0.369553
141 *221:70 *221:71 2.21759
142 *221:219 *221:218 9
143 *221:71 *221:103 0.554398
144 *221:212 *221:219 0.554398
145 *221:104 *735:A 9
146 *221:103 *221:104 0.369553
147 *221:212 *221:213 0.184845
148 *221:104 *221:105 0.554398
149 *221:208 *221:213 2.77199
150 *221:94 *221:105 0.184845
151 *221:207 *221:208 0.184845
152 *221:94 *221:95 2.03275
153 *221:200 *221:207 0.554398
154 *221:85 *221:95 0.184845
155 *221:199 *221:200 9
156 *221:203 *700:A 9
157 *221:86 *688:A 9
158 *221:85 *221:86 0.739243
159 *221:196 *699:A 9
160 *221:199 *221:201 0.554398
161 *221:201 *221:203 0.369553
162 *221:87 *691:A 9
163 *221:86 *221:87 2.03275
164 *221:196 *221:197 0.92395
165 *221:202 *221:201 9
166 *221:87 *221:88 1.1088
167 *221:198 *221:197 9
168 *221:198 *221:202 1.84804
169 *221:88 *221:109 0.739243
170 *221:188 *698:A 9
171 *221:190 *221:198 1.29364
172 *221:109 *221:110 0.554398
173 *221:188 *221:189 0.92395
174 *221:189 *221:190 9
175 *221:110 *221:111 0.184845
176 *221:114 *687:A 9
177 *221:189 *221:191 0.554398
178 *221:179 *689:A 9
179 *221:133 *696:A 9
180 *221:111 *221:112 2.58714
181 *221:112 *221:114 0.369553
182 *221:186 *221:191 0.184845
183 *221:179 *221:180 5.72882
184 *221:152 *692:A 9
185 *221:131 *221:133 0.369553
186 *221:113 *221:112 9
187 *221:186 *221:187 2.21759
188 *221:173 *221:180 0.184845
189 *221:176 *697:A 9
190 *221:150 *221:152 0.369553
191 *221:132 *221:131 9
192 *221:113 *221:132 1.66319
193 *221:266 *713:A 9
194 *221:187 *221:192 0.184845
195 *221:195 *693:A 9
196 *221:173 *221:174 0.554398
197 *221:174 *221:176 0.369553
198 *221:151 *221:150 9
199 *221:132 *221:151 2.21759
200 *221:265 *221:266 1.1088
201 *221:211 *701:A 9
202 *221:192 *221:193 0.554398
203 *221:193 *221:195 0.369553
204 *221:175 *221:174 9
205 *221:151 *221:175 2.21759
206 *221:264 *221:265 0.369553
207 *221:216 *705:A 9
208 *221:209 *221:211 0.369553
209 *221:194 *221:193 9
210 *221:175 *221:194 4.25034
211 *221:262 *221:264 0.92395
212 *221:230 *703:A 9
213 *221:214 *221:216 0.369553
214 *221:210 *221:209 9
215 *221:194 *221:210 4.62003
216 *221:260 *712:A 9
217 *221:52 *221:260 0.256805
218 *221:263 *221:262 9
219 *221:228 *221:230 0.369553
220 *221:215 *221:214 9
221 *221:210 *221:215 2.21759
222 *221:261 *221:260 9
223 *221:261 *221:263 0.554398
224 *221:229 *221:228 9
225 *221:215 *221:229 1.47835
226 *221:256 *221:261 1.47835
227 *221:229 *221:232 1.84804
228 *221:255 *221:256 9
229 *221:231 *221:232 9
230 *221:257 *715:A 9
231 *221:255 *221:257 3.32639
232 *221:233 *704:A 9
233 *221:231 *221:233 0.369553
234 *221:252 *710:A 9
235 *221:257 *221:258 0.554398
236 *221:236 *706:A 9
237 *221:233 *221:234 0.554398
238 *221:249 *709:A 9
239 *221:252 *221:253 0.554398
240 *221:259 *221:258 9
241 *221:236 *221:237 0.554398
242 *221:235 *221:234 9
243 *221:249 *221:250 0.554398
244 *221:254 *221:253 9
245 *221:254 *221:259 2.77199
246 *221:238 *221:237 9
247 *221:235 *221:238 3.69594
248 *221:251 *221:250 9
249 *221:251 *221:254 2.40244
250 *221:238 *221:244 2.03275
251 *221:244 *221:251 4.25034
252 *221:239 *707:A 9
253 *221:54 *221:239 0.256805
254 *221:243 *221:244 9
255 *221:240 *221:239 9
256 *221:241 *221:243 3.88078
257 *221:245 *708:A 9
258 *221:53 *221:245 0.256805
259 *221:240 *221:242 0.739243
260 *221:242 *221:241 9
261 *221:246 *221:245 9
262 *221:242 *221:246 0.554398
263 *221:246 *221:248 1.47835
264 *221:247 *711:A 9
265 *221:247 *221:248 9
266 *221:51 *221:247 0.0439453
*END

*D_NET *222 0.00073436

*CONN
*I *768:Q O *C 74.55 91.77 *L 0 *D NA2JIX0
*I *751:C I *C 75.39 92.61 *L 0.00162 *D ON21JIX0
*I *694:D I *C 69.93 92.19 *L 0.00162 *D ON31JIX0

*CAP
1 *768:Q 7.53085e-05
2 *751:C 2.578e-05
3 *694:D 2.87511e-05
4 *222:3 0.00026312
5 *222:4 0.00026312
6 *222:5 7.82796e-05

*RES
1 *768:Q *751:C 0.288759
2 *222:5 *768:Q 0.577518
3 *222:4 *222:5 0.288759
4 *222:3 *694:D 0.288759
5 *222:3 *222:4 2.59875011
*END

*D_NET *223 0.00180127

*CONN
*I *767:Q O *C 59.43 70.35 *L 0 *D AO22JIX0
*I *657:D I *C 49.35 65.73 *L 0.00168 *D SDFRRSJIX1

*CAP
1 *767:Q 0.000245328
2 *657:D 5.28487e-05
3 *223:3 0.00022904
4 *223:4 0.00022904
5 *223:5 0.00036183
6 *223:6 0.000275639
7 *223:7 4.57098e-05
8 *223:8 0.00036183

*RES
1 *223:3 *657:D 9
2 *223:3 *223:4 1.47835
3 *223:5 *223:4 9
4 *223:5 *223:8 2.58714
5 *223:6 *767:Q 2.88748
6 *223:7 *223:8 9
7 *223:7 *223:6 9
8 *223:2 *223:7 0.256805
*END

*D_NET *224 0.00110582

*CONN
*I *766:Q O *C 83.79 85.47 *L 0 *D AO22JIX0
*I *661:D I *C 80.85 88.41 *L 0.00168 *D SDFRRSJIX1

*CAP
1 *766:Q 0.000185852
2 *661:D 5.28486e-05
3 *224:2 0.000216162
4 *224:3 0.00032548
5 *224:4 0.00032548

*RES
1 *224:4 *661:D 9
2 *224:3 *224:4 1.29364
3 *224:2 *224:3 9
4 *224:2 *766:Q 2.02121
*END

*D_NET *225 0.0012467

*CONN
*I *765:Q O *C 106.89 49.77 *L 0 *D AO22JIX0
*I *674:D I *C 104.37 46.83 *L 0.00167 *D SDFRRQJIX1

*CAP
1 *765:Q 2.87485e-05
2 *674:D 5.28482e-05
3 *225:2 0.00037613
4 *225:3 0.000207197
5 *225:4 0.00037613
6 *225:5 0.000205642

*RES
1 *765:Q *225:5 0.288803
2 *225:3 *225:5 1.73254
3 *225:4 *225:3 9
4 *225:2 *225:4 2.03275
5 *674:D *225:2 9
*END

*D_NET *226 0.00083074

*CONN
*I *764:Q O *C 58.17 62.79 *L 0 *D AO22JIX0
*I *668:D I *C 56.91 58.17 *L 0.00168 *D SDFRRSJIX1

*CAP
1 *764:Q 7.73389e-05
2 *668:D 5.28485e-05
3 *226:2 0.00029645
4 *226:3 0.000107651
5 *226:4 0.00029645

*RES
1 *226:3 *764:Q 0.866272
2 *226:4 *226:3 9
3 *226:2 *226:4 1.29364
4 *668:D *226:2 9
*END

*D_NET *227 0.00088972

*CONN
*I *763:Q O *C 80.85 27.09 *L 0 *D AO22JIX0
*I *670:D I *C 79.17 24.15 *L 0.00167 *D SDFRRQJIX1

*CAP
1 *763:Q 0.000109811
2 *670:D 5.28501e-05
3 *227:2 0.00029347
4 *227:3 0.000140119
5 *227:4 0.00029347

*RES
1 *227:3 *763:Q 1.15494
2 *227:4 *227:3 9
3 *227:2 *227:4 1.29364
4 *670:D *227:2 9
*END

*D_NET *228 0.00055958

*CONN
*I *762:Q O *C 70.35 47.67 *L 0 *D AO22JIX0
*I *667:D I *C 69.93 50.61 *L 0.00168 *D SDFRRSJIX1

*CAP
1 *762:Q 5.28495e-05
2 *667:D 5.28495e-05
3 *228:2 0.00014875
4 *228:3 0.00014143
5 *228:4 7.81894e-05
6 *228:5 8.55094e-05

*RES
1 *228:4 *762:Q 9
2 *228:3 *667:D 9
3 *228:4 *228:5 0.369553
4 *228:2 *228:3 0.92395
5 *228:2 *228:5 0.184845
*END

*D_NET *229 0.00080346

*CONN
*I *761:Q O *C 48.51 27.09 *L 0 *D AO22JIX0
*I *669:D I *C 46.83 31.71 *L 0.00167 *D SDFRRQJIX1

*CAP
1 *761:Q 0.000148472
2 *669:D 5.28497e-05
3 *229:2 0.000178779
4 *229:3 0.00021168
5 *229:4 0.00021168

*RES
1 *229:4 *669:D 9
2 *229:3 *229:4 1.29364
3 *229:2 *229:3 9
4 *229:2 *761:Q 1.15494
*END

*D_NET *230 0.00114794

*CONN
*I *760:Q O *C 77.49 93.03 *L 0 *D AO22JIX0
*I *666:D I *C 82.53 92.19 *L 0.00168 *D SDFRRSJIX1

*CAP
1 *760:Q 5.28475e-05
2 *666:D 5.28475e-05
3 *230:4 4.57093e-05
4 *230:5 0.00047541
5 *230:6 4.57093e-05
6 *230:7 0.00047541

*RES
1 *230:3 *230:4 0.256805
2 *230:4 *760:Q 9
3 *230:5 *230:4 9
4 *230:5 *230:7 2.21759
5 *230:6 *666:D 9
6 *230:6 *230:7 9
7 *230:2 *230:6 0.256805
*END

*D_NET *231 0.00150994

*CONN
*I *759:Q O *C 55.65 42.21 *L 0 *D AO22JIX0
*I *659:D I *C 46.83 43.05 *L 0.00167 *D SDFRRQJIX1

*CAP
1 *759:Q 5.28498e-05
2 *659:D 5.28498e-05
3 *231:4 4.57127e-05
4 *231:5 0.000167622
5 *231:6 0.000331411
6 *231:7 0.000174809
7 *231:8 0.00036146
8 *231:9 0.00015738
9 *231:10 4.57127e-05
10 *231:11 0.000120139

*RES
1 *231:4 *659:D 9
2 *231:3 *231:4 0.256805
3 *231:5 *231:4 9
4 *231:5 *231:7 1.1088
5 *231:6 *231:7 0.184845
6 *231:6 *231:8 2.03275
7 *231:8 *231:9 0.369553
8 *231:9 *231:11 0.739243
9 *231:10 *231:11 9
10 *231:10 *759:Q 9
11 *231:2 *231:10 0.256805
*END

*D_NET *232 0.00185664

*CONN
*I *758:Q O *C 50.61 40.11 *L 0 *D AO22JIX0
*I *664:D I *C 46.41 35.49 *L 0.00167 *D SDFRRQJIX1

*CAP
1 *758:Q 2.87487e-05
2 *664:D 5.28471e-05
3 *232:2 0.00050041
4 *232:3 0.000387889
5 *232:4 0.00050041
6 *232:5 0.000386332

*RES
1 *758:Q *232:5 0.288803
2 *232:3 *232:5 2.88748
3 *232:4 *232:3 9
4 *232:2 *232:4 2.03275
5 *664:D *232:2 9
*END

*D_NET *233 0.00157624

*CONN
*I *757:Q O *C 51.45 62.79 *L 0 *D AO22JIX0
*I *663:D I *C 44.73 58.17 *L 0.00168 *D SDFRRSJIX1

*CAP
1 *757:Q 7.73409e-05
2 *663:D 5.28498e-05
3 *233:2 0.000140148
4 *233:3 0.000238001
5 *233:4 0.0001479
6 *233:5 0.00035396
7 *233:6 5.00523e-05
8 *233:7 0.00038115
9 *233:8 0.000134838

*RES
1 *233:8 *757:Q 0.866272
2 *233:7 *233:8 0.577469
3 *233:5 *233:7 2.59882
4 *233:6 *233:5 9
5 *233:4 *233:6 0.184845
6 *233:3 *233:4 0.739243
7 *233:2 *233:3 0.739243
8 *663:D *233:2 9
*END

*D_NET *234 0.00130583

*CONN
*I *756:Q O *C 75.39 57.33 *L 0 *D AO22JIX0
*I *662:D I *C 69.93 54.39 *L 0.00168 *D SDFRRSJIX1

*CAP
1 *756:Q 5.28511e-05
2 *662:D 5.28511e-05
3 *234:3 0.000209288
4 *234:4 0.000209288
5 *234:5 0.00036792
6 *234:6 4.571e-05
7 *234:7 0.00036792

*RES
1 *234:3 *662:D 9
2 *234:3 *234:4 1.29364
3 *234:5 *234:4 9
4 *234:5 *234:7 2.40244
5 *234:6 *234:7 9
6 *234:6 *756:Q 9
7 *234:2 *234:6 0.256805
*END

*D_NET *235 0.00080218

*CONN
*I *755:Q O *C 69.93 27.09 *L 0 *D AO22JIX0
*I *665:D I *C 68.25 24.15 *L 0.00167 *D SDFRRQJIX1

*CAP
1 *755:Q 0.00010577
2 *665:D 5.28504e-05
3 *235:2 0.00025374
4 *235:3 0.000136079
5 *235:4 0.00025374

*RES
1 *235:3 *755:Q 1.15494
2 *235:4 *235:3 9
3 *235:2 *235:4 1.29364
4 *665:D *235:2 9
*END

*D_NET *236 0.00157356

*CONN
*I *754:Q O *C 51.87 27.09 *L 0 *D AO22JIX0
*I *660:D I *C 46.41 24.15 *L 0.00167 *D SDFRRQJIX1

*CAP
1 *754:Q 2.64532e-05
2 *660:D 5.28533e-05
3 *236:2 0.000284548
4 *236:3 0.0004358
5 *236:4 0.000284548
6 *236:5 0.000434197
7 *236:6 5.51608e-05

*RES
1 *236:6 *754:Q 0.288803
2 *236:5 *236:6 0.288803
3 *236:3 *236:5 3.46495
4 *236:4 *236:3 9
5 *236:2 *236:4 1.1088
6 *660:D *236:2 9
*END

*D_NET *237 0.0014138

*CONN
*I *753:Q O *C 56.07 47.67 *L 0 *D AO22JIX0
*I *658:D I *C 56.91 54.39 *L 0.00168 *D SDFRRSJIX1

*CAP
1 *753:Q 2.87486e-05
2 *658:D 5.28514e-05
3 *237:2 9.83492e-05
4 *237:3 9.99065e-05
5 *237:4 0.00056697
6 *237:5 0.00056697

*RES
1 *237:5 *658:D 9
2 *237:4 *237:5 2.58714
3 *237:3 *237:4 9
4 *237:2 *237:3 0.577469
5 *753:Q *237:2 0.288803
*END

*D_NET *238 0.00115152

*CONN
*I *752:Q O *C 106.05 64.89 *L 0 *D AO22JIX0
*I *678:D I *C 103.11 61.95 *L 0.00168 *D SDFRRSJIX1

*CAP
1 *752:Q 8.55304e-05
2 *678:D 5.28499e-05
3 *238:2 0.000243351
4 *238:3 0.0003412
5 *238:4 0.000205298
6 *238:5 0.000115842
7 *238:6 0.000107449

*RES
1 *238:5 *752:Q 0.866272
2 *238:6 *238:5 9
3 *238:4 *238:6 0.369553
4 *238:3 *238:4 0.739243
5 *238:2 *238:3 0.92395
6 *678:D *238:2 9
*END

*D_NET *239 0.00087846

*CONN
*I *750:Q O *C 59.43 27.09 *L 0 *D AO22JIX0
*I *655:D I *C 57.33 24.15 *L 0.00167 *D SDFRRQJIX1

*CAP
1 *750:Q 0.00013223
2 *655:D 5.28491e-05
3 *239:2 0.00026542
4 *239:3 0.000162541
5 *239:4 0.00026542

*RES
1 *239:3 *750:Q 1.44374
2 *239:4 *239:3 9
3 *239:2 *239:4 1.29364
4 *655:D *239:2 9
*END

*D_NET *240 0.0011172

*CONN
*I *749:Q O *C 47.67 40.11 *L 0 *D AO22JIX0
*I *654:D I *C 46.83 46.83 *L 0.00167 *D SDFRRQJIX1

*CAP
1 *749:Q 5.28491e-05
2 *654:D 5.28491e-05
3 *240:2 0.00019717
4 *240:3 0.000159677
5 *240:4 0.000308582
6 *240:5 0.00034607

*RES
1 *240:4 *749:Q 9
2 *240:3 *654:D 9
3 *240:4 *240:5 1.84804
4 *240:2 *240:3 0.92395
5 *240:2 *240:5 0.369553
*END

*D_NET *241 0.00115126

*CONN
*I *748:Q O *C 52.29 70.35 *L 0 *D AO22JIX0
*I *652:D I *C 48.51 73.29 *L 0.00168 *D SDFRRSJIX1

*CAP
1 *748:Q 0.000238001
2 *652:D 5.28495e-05
3 *241:2 0.000268308
4 *241:3 0.00029605
5 *241:4 0.00029605

*RES
1 *241:4 *652:D 9
2 *241:3 *241:4 1.29364
3 *241:2 *241:3 9
4 *241:2 *748:Q 2.59882
*END

*D_NET *242 0.00114312

*CONN
*I *747:Q O *C 71.61 77.91 *L 0 *D AO22JIX0
*I *651:D I *C 68.25 80.85 *L 0.00168 *D SDFRRSJIX1

*CAP
1 *747:Q 0.000105772
2 *651:D 5.28515e-05
3 *242:2 0.00034612
4 *242:3 0.000248271
5 *242:4 0.000142298
6 *242:5 7.49808e-05
7 *242:6 0.00017283

*RES
1 *242:4 *747:Q 1.15494
2 *242:5 *242:4 9
3 *242:3 *651:D 9
4 *242:5 *242:6 0.369553
5 *242:2 *242:3 0.92395
6 *242:2 *242:6 0.739243
*END

*D_NET *243 0.0015684

*CONN
*I *746:Q O *C 107.73 34.65 *L 0 *D AO22JIX0
*I *680:D I *C 105.21 39.27 *L 0.00167 *D SDFRRQJIX1

*CAP
1 *746:Q 2.87138e-05
2 *680:D 5.28483e-05
3 *243:2 0.000237284
4 *243:3 0.00050694
5 *243:4 0.00050694
6 *243:5 0.000235682

*RES
1 *243:4 *680:D 9
2 *243:3 *243:4 2.03275
3 *243:5 *746:Q 0.288803
4 *243:2 *243:3 9
5 *243:2 *243:5 1.73254
*END

*D_NET *244 0.00075726

*CONN
*I *745:Q O *C 105.63 72.45 *L 0 *D AO22JIX0
*I *673:D I *C 103.95 77.07 *L 0.00168 *D SDFRRSJIX1

*CAP
1 *745:Q 2.87512e-05
2 *673:D 5.285e-05
3 *244:2 0.00013709
4 *244:3 0.00020152
5 *244:4 0.00020152
6 *244:5 0.000135531

*RES
1 *244:4 *673:D 9
2 *244:3 *244:4 1.1088
3 *745:Q *244:5 0.288803
4 *244:2 *244:3 9
5 *244:2 *244:5 1.15494
*END

*D_NET *245 0.0007098

*CONN
*I *744:Q O *C 81.27 77.91 *L 0 *D AO22JIX0
*I *656:D I *C 80.43 80.85 *L 0.00168 *D SDFRRSJIX1

*CAP
1 *744:Q 2.87099e-05
2 *656:D 5.28497e-05
3 *245:2 9.93e-05
4 *245:3 0.00021562
5 *245:4 0.00021562
6 *245:5 9.7701e-05

*RES
1 *245:4 *656:D 9
2 *245:3 *245:4 1.1088
3 *744:Q *245:5 0.288803
4 *245:2 *245:3 9
5 *245:2 *245:5 0.577469
*END

*D_NET *246 0.00083256

*CONN
*I *743:Q O *C 49.77 55.23 *L 0 *D AO22JIX0
*I *653:D I *C 46.41 50.61 *L 0.00168 *D SDFRRSJIX1

*CAP
1 *743:Q 0.00016755
2 *653:D 5.28504e-05
3 *246:2 0.00020715
4 *246:3 0.00019786
5 *246:4 0.00020715

*RES
1 *246:3 *743:Q 2.31001
2 *246:4 *246:3 9
3 *246:2 *246:4 1.29364
4 *653:D *246:2 9
*END

*D_NET *247 0.0007218

*CONN
*I *742:Q O *C 95.97 87.57 *L 0 *D AO22JIX0
*I *671:D I *C 94.71 92.19 *L 0.00168 *D SDFRRSJIX1

*CAP
1 *742:Q 5.74107e-05
2 *671:D 5.28493e-05
3 *247:2 0.00014001
4 *247:3 0.00015532
5 *247:4 0.00015532
6 *247:5 0.00016089

*RES
1 *247:4 *671:D 9
2 *247:3 *247:4 0.92395
3 *742:Q *247:5 0.577469
4 *247:2 *247:3 9
5 *247:2 *247:5 0.866272
*END

*D_NET *248 0.00184362

*CONN
*I *741:Q O *C 104.79 34.65 *L 0 *D AO22JIX0
*I *675:D I *C 104.37 43.05 *L 0.00167 *D SDFRRQJIX1

*CAP
1 *741:Q 5.28542e-05
2 *675:D 5.28542e-05
3 *248:2 0.00070661
4 *248:3 0.000699084
5 *248:4 0.000162347
6 *248:5 0.000169884

*RES
1 *248:4 *741:Q 9
2 *248:3 *675:D 9
3 *248:4 *248:5 0.554398
4 *248:2 *248:3 2.58714
5 *248:2 *248:5 0.184845
*END

*D_NET *249 0.0007206

*CONN
*I *740:Q O *C 102.27 85.47 *L 0 *D AO22JIX0
*I *677:D I *C 103.11 88.41 *L 0.00168 *D SDFRRSJIX1

*CAP
1 *740:Q 2.87088e-05
2 *677:D 5.28488e-05
3 *249:2 0.000100329
4 *249:3 0.000101929
5 *249:4 0.00021839
6 *249:5 0.00021839

*RES
1 *249:5 *677:D 9
2 *249:4 *249:5 1.1088
3 *249:3 *249:4 9
4 *249:2 *249:3 0.577469
5 *740:Q *249:2 0.288803
*END

*D_NET *250 0.00136636

*CONN
*I *739:Q O *C 93.03 87.57 *L 0 *D AO22JIX0
*I *676:D I *C 90.93 95.97 *L 0.00168 *D SDFRRSJIX1

*CAP
1 *739:Q 0.000103117
2 *676:D 5.28502e-05
3 *250:2 0.00048796
4 *250:3 0.00048073
5 *250:4 0.000133429
6 *250:5 5.05197e-05
7 *250:6 5.77496e-05

*RES
1 *250:4 *739:Q 1.15494
2 *250:5 *250:4 9
3 *250:3 *676:D 9
4 *250:5 *250:6 0.184845
5 *250:2 *250:3 2.95683
6 *250:2 *250:6 0.184845
*END

*D_NET *251 0.00074766

*CONN
*I *738:Q O *C 106.47 55.23 *L 0 *D AO22JIX0
*I *679:D I *C 103.95 58.17 *L 0.00167 *D SDFRRQJIX1

*CAP
1 *738:Q 2.74604e-05
2 *679:D 5.28493e-05
3 *251:2 0.000200781
4 *251:3 7.27504e-05
5 *251:4 6.39893e-05
6 *251:5 0.000100899
7 *251:6 0.00022893

*RES
1 *251:4 *738:Q 0.288803
2 *251:5 *251:4 9
3 *251:3 *679:D 9
4 *251:5 *251:6 0.92395
5 *251:2 *251:3 0.369553
6 *251:2 *251:6 0.92395
*END

*D_NET *252 0.00086852

*CONN
*I *737:Q O *C 105.63 85.47 *L 0 *D AO22JIX0
*I *672:D I *C 103.11 80.85 *L 0.00168 *D SDFRRSJIX1

*CAP
1 *737:Q 5.15397e-05
2 *672:D 5.285e-05
3 *252:2 0.000167599
4 *252:3 0.00020493
5 *252:4 8.78508e-05
6 *252:5 9.03993e-05
7 *252:6 5.05203e-05
8 *252:7 8.25786e-05
9 *252:8 8.0249e-05

*RES
1 *252:8 *737:Q 0.577469
2 *252:7 *252:8 0.288803
3 *252:5 *252:7 0.577469
4 *252:6 *252:5 9
5 *252:4 *252:6 0.184845
6 *252:3 *252:4 0.369553
7 *252:2 *252:3 0.92395
8 *672:D *252:2 9
*END

*D_NET *253 0.00199898

*CONN
*I *751:Q O *C 75.39 91.77 *L 0 *D ON21JIX0
*I *695:C I *C 70.77 87.99 *L 0.00159 *D AO21JIX0
*I *684:E I *C 74.55 87.99 *L 0.00158 *D AO32JIX0

*CAP
1 *751:Q 5.75029e-05
2 *695:C 5.28471e-05
3 *684:E 5.28471e-05
4 *253:3 6.66378e-05
5 *253:4 7.39628e-05
6 *253:5 0.000213442
7 *253:6 0.000363787
8 *253:7 0.000206117
9 *253:8 0.00019842
10 *253:9 0.00039937
11 *253:10 0.00019842
12 *253:11 0.000115621

*RES
1 *253:8 *684:E 9
2 *253:8 *253:10 1.1088
3 *253:11 *751:Q 0.577469
4 *253:9 *253:10 9
5 *253:9 *253:11 0.577469
6 *253:6 *253:9 2.31001
7 *253:7 *253:6 9
8 *253:5 *253:7 1.1088
9 *253:4 *253:5 0.184845
10 *253:3 *253:4 0.184845
11 *695:C *253:3 9
*END

*D_NET *254 0.00077336

*CONN
*I *736:Q O *C 26.25 87.57 *L 0 *D AO22JIX0
*I *619:D I *C 25.83 92.19 *L 0.00167 *D SDFRRQJIX1

*CAP
1 *736:Q 5.28483e-05
2 *619:D 5.28483e-05
3 *254:2 0.00025564
4 *254:3 0.000248451
5 *254:4 7.81919e-05
6 *254:5 8.53811e-05

*RES
1 *254:4 *736:Q 9
2 *254:3 *619:D 9
3 *254:4 *254:5 0.369553
4 *254:2 *254:3 0.92395
5 *254:2 *254:5 0.184845
*END

*D_NET *255 0.00073418

*CONN
*I *735:Q O *C 23.31 87.57 *L 0 *D AO22JIX0
*I *618:D I *C 25.41 84.63 *L 0.00167 *D SDFRRQJIX1

*CAP
1 *735:Q 2.87093e-05
2 *618:D 5.28509e-05
3 *255:2 0.00016031
4 *255:3 0.0001652
5 *255:4 0.00016191
6 *255:5 0.0001652

*RES
1 *255:3 *618:D 9
2 *255:3 *255:5 1.1088
3 *255:4 *255:5 9
4 *255:2 *255:4 1.44374
5 *255:2 *735:Q 0.288803
*END

*D_NET *256 0.00166267

*CONN
*I *734:Q O *C 30.03 87.57 *L 0 *D AO22JIX0
*I *617:D I *C 38.43 88.41 *L 0.00167 *D SDFRRQJIX1

*CAP
1 *734:Q 2.76625e-05
2 *617:D 5.28531e-05
3 *256:4 6.41862e-05
4 *256:5 4.57096e-05
5 *256:6 0.00068643
6 *256:7 4.97003e-05
7 *256:8 0.00068643
8 *256:9 4.97003e-05

*RES
1 *256:4 *734:Q 0.288803
2 *256:3 *256:5 0.256805
3 *256:5 *256:4 9
4 *256:6 *256:5 9
5 *256:9 *617:D 9
6 *256:6 *256:8 3.88078
7 *256:7 *256:9 0.184845
8 *256:7 *256:8 9
9 *256:2 *256:7 0.0811615
*END

*D_NET *257 0.0015414

*CONN
*I *733:Q O *C 38.85 77.91 *L 0 *D AO22JIX0
*I *616:D I *C 39.27 69.51 *L 0.00167 *D SDFRRQJIX1

*CAP
1 *733:Q 5.28517e-05
2 *616:D 5.28517e-05
3 *257:2 0.000148094
4 *257:3 0.000140768
5 *257:4 0.000569762
6 *257:5 0.00057708

*RES
1 *257:4 *616:D 9
2 *257:4 *257:5 2.58714
3 *257:3 *733:Q 9
4 *257:2 *257:5 0.184845
5 *257:2 *257:3 0.554398
*END

*D_NET *258 0.0009424

*CONN
*I *732:Q O *C 22.89 80.01 *L 0 *D AO22JIX0
*I *615:D I *C 25.41 77.07 *L 0.00167 *D SDFRRQJIX1

*CAP
1 *732:Q 2.87092e-05
2 *615:D 5.28515e-05
3 *258:2 0.000159819
4 *258:3 7.48999e-05
5 *258:4 0.000161419
6 *258:5 6.77087e-05
7 *258:6 0.000194899
8 *258:7 0.00020209

*RES
1 *258:6 *615:D 9
2 *258:6 *258:7 0.92395
3 *258:3 *258:7 0.184845
4 *258:3 *258:5 0.184845
5 *258:4 *258:5 9
6 *258:2 *258:4 1.44374
7 *258:2 *732:Q 0.288803
*END

*D_NET *259 0.00089226

*CONN
*I *731:Q O *C 26.25 80.01 *L 0 *D AO22JIX0
*I *614:D I *C 25.83 73.29 *L 0.00167 *D SDFRRQJIX1

*CAP
1 *731:Q 5.28488e-05
2 *614:D 5.28488e-05
3 *259:2 0.000182209
4 *259:3 0.000189401
5 *259:4 0.00021107
6 *259:5 0.000203881

*RES
1 *259:5 *731:Q 9
2 *259:4 *259:5 1.66319
3 *259:3 *259:4 0.184845
4 *259:2 *259:3 1.1088
5 *614:D *259:2 9
*END

*D_NET *260 0.00079447

*CONN
*I *730:Q O *C 35.91 77.91 *L 0 *D AO22JIX0
*I *613:D I *C 37.59 73.29 *L 0.00167 *D SDFRRQJIX1

*CAP
1 *730:Q 2.5779e-05
2 *613:D 5.28489e-05
3 *260:2 5.51611e-05
4 *260:3 5.44914e-05
5 *260:4 0.0002452
6 *260:5 6.29809e-05
7 *260:6 0.000207291
8 *260:7 9.07204e-05

*RES
1 *260:7 *613:D 9
2 *260:4 *260:7 0.369553
3 *260:4 *260:6 1.1088
4 *260:5 *260:6 9
5 *260:2 *260:5 0.288803
6 *260:2 *260:3 0.288803
7 *730:Q *260:3 0.288803
*END

*D_NET *261 0.00109177

*CONN
*I *729:Q O *C 22.47 70.35 *L 0 *D AO22JIX0
*I *612:D I *C 27.51 69.51 *L 0.00167 *D SDFRRQJIX1

*CAP
1 *729:Q 5.28503e-05
2 *612:D 5.28503e-05
3 *261:3 4.57084e-05
4 *261:4 0.00040004
5 *261:5 7.01375e-05
6 *261:6 7.01375e-05
7 *261:7 0.00040004

*RES
1 *261:5 *612:D 9
2 *261:5 *261:6 0.369553
3 *261:7 *261:6 9
4 *261:4 *261:7 2.21759
5 *261:3 *261:4 9
6 *261:3 *729:Q 9
7 *261:2 *261:3 0.256805
*END

*D_NET *262 0.00148526

*CONN
*I *728:Q O *C 33.39 64.89 *L 0 *D AO22JIX0
*I *611:D I *C 38.43 65.73 *L 0.00167 *D SDFRRQJIX1

*CAP
1 *728:Q 5.28543e-05
2 *611:D 5.28543e-05
3 *262:4 4.57095e-05
4 *262:5 0.00064407
5 *262:6 4.57095e-05
6 *262:7 0.00064407

*RES
1 *262:3 *262:4 0.256805
2 *262:4 *728:Q 9
3 *262:5 *262:4 9
4 *262:5 *262:7 2.21759
5 *262:6 *611:D 9
6 *262:6 *262:7 9
7 *262:2 *262:6 0.256805
*END

*D_NET *263 0.0009118

*CONN
*I *727:Q O *C 22.47 62.79 *L 0 *D AO22JIX0
*I *610:D I *C 24.57 65.73 *L 0.00167 *D SDFRRQJIX1

*CAP
1 *727:Q 2.87108e-05
2 *610:D 5.28504e-05
3 *263:2 0.000212529
4 *263:3 0.00021413
5 *263:4 0.000201789
6 *263:5 0.000201789

*RES
1 *263:5 *610:D 9
2 *263:4 *263:5 1.1088
3 *263:3 *263:4 9
4 *263:2 *263:3 1.44374
5 *727:Q *263:2 0.288803
*END

*D_NET *264 0.00230198

*CONN
*I *726:Q O *C 31.29 57.33 *L 0 *D AO22JIX0
*I *609:D I *C 40.95 61.95 *L 0.00167 *D SDFRRQJIX1

*CAP
1 *726:Q 5.28488e-05
2 *609:D 5.28488e-05
3 *264:2 0.00010662
4 *264:3 0.000144527
5 *264:4 9.07154e-05
6 *264:5 0.0006572
7 *264:6 0.00027355
8 *264:7 0.00065011
9 *264:8 0.00027355

*RES
1 *264:8 *609:D 9
2 *264:6 *264:8 0.92395
3 *264:7 *264:6 9
4 *264:5 *264:7 3.88078
5 *264:4 *264:5 9
6 *264:3 *264:4 0.369553
7 *264:2 *264:3 0.369553
8 *726:Q *264:2 9
*END

*D_NET *265 0.00178884

*CONN
*I *725:Q O *C 23.31 57.33 *L 0 *D AO22JIX0
*I *608:D I *C 27.51 61.95 *L 0.00167 *D SDFRRQJIX1

*CAP
1 *725:Q 2.87094e-05
2 *608:D 5.28529e-05
3 *265:2 0.000377121
4 *265:3 0.000378718
5 *265:4 0.00047572
6 *265:5 0.00047572

*RES
1 *265:5 *608:D 9
2 *265:4 *265:5 2.03275
3 *265:3 *265:4 9
4 *265:2 *265:3 2.88748
5 *265:2 *725:Q 0.288803
*END

*D_NET *266 0.00138794

*CONN
*I *724:Q O *C 22.47 49.77 *L 0 *D AO22JIX0
*I *607:D I *C 27.51 46.83 *L 0.00167 *D SDFRRQJIX1

*CAP
1 *724:Q 2.87116e-05
2 *607:D 5.28509e-05
3 *266:2 0.00038256
4 *266:3 0.00038416
5 *266:4 8.36318e-05
6 *266:5 0.000209059
7 *266:6 0.000246968

*RES
1 *266:5 *607:D 9
2 *266:5 *266:6 1.1088
3 *266:4 *266:6 0.369553
4 *266:3 *266:4 9
5 *266:2 *266:3 2.88748
6 *266:2 *724:Q 0.288803
*END

*D_NET *267 0.00074284

*CONN
*I *723:Q O *C 37.17 34.65 *L 0 *D AO22JIX0
*I *604:D I *C 36.33 39.27 *L 0.00167 *D SDFRRQJIX1

*CAP
1 *723:Q 5.15408e-05
2 *604:D 5.28488e-05
3 *267:2 8.18487e-05
4 *267:3 0.0002783
5 *267:4 0.0002783

*RES
1 *267:4 *604:D 9
2 *267:3 *267:4 1.29364
3 *267:2 *267:3 9
4 *267:2 *723:Q 0.577469
*END

*D_NET *268 0.0013119

*CONN
*I *722:Q O *C 22.47 47.67 *L 0 *D AO22JIX0
*I *606:D I *C 24.99 43.05 *L 0.00167 *D SDFRRQJIX1

*CAP
1 *722:Q 5.28511e-05
2 *606:D 5.28511e-05
3 *268:2 0.0002086
4 *268:3 0.000189499
5 *268:4 0.0002086
6 *268:5 0.000205
7 *268:6 0.000205
8 *268:7 0.000189499

*RES
1 *268:5 *606:D 9
2 *268:5 *268:6 0.554398
3 *268:7 *268:6 9
4 *268:3 *268:7 1.1088
5 *268:4 *722:Q 9
6 *268:2 *268:3 9
7 *268:2 *268:4 0.739243
*END

*D_NET *269 0.00081406

*CONN
*I *721:Q O *C 37.17 47.67 *L 0 *D AO22JIX0
*I *605:D I *C 35.91 43.05 *L 0.00167 *D SDFRRQJIX1

*CAP
1 *721:Q 5.48914e-05
2 *605:D 5.28493e-05
3 *269:2 0.0002554
4 *269:3 5.67582e-05
5 *269:4 0.0002554
6 *269:5 5.51603e-05
7 *269:6 8.36018e-05

*RES
1 *269:6 *721:Q 0.577469
2 *269:5 *269:6 0.288803
3 *269:3 *269:5 0.288803
4 *269:4 *269:3 9
5 *269:2 *269:4 1.1088
6 *605:D *269:2 9
*END

*D_NET *270 0.00085852

*CONN
*I *720:Q O *C 23.31 34.65 *L 0 *D AO22JIX0
*I *603:D I *C 25.41 39.27 *L 0.00167 *D SDFRRQJIX1

*CAP
1 *720:Q 5.28503e-05
2 *603:D 5.28503e-05
3 *270:2 0.000174592
4 *270:3 0.00030366
5 *270:4 0.000201819
6 *270:5 7.27514e-05

*RES
1 *270:5 *603:D 9
2 *270:4 *270:5 0.369553
3 *270:3 *270:4 0.92395
4 *270:2 *270:3 0.92395
5 *720:Q *270:2 9
*END

*D_NET *271 0.000541

*CONN
*I *719:Q O *C 25.83 49.77 *L 0 *D AO22JIX0
*I *598:D I *C 25.83 54.39 *L 0.00167 *D SDFRRQJIX1

*CAP
1 *719:Q 5.28491e-05
2 *598:D 5.28491e-05
3 *271:2 0.00021765
4 *271:3 0.00021765

*RES
1 *271:3 *598:D 9
2 *271:2 *271:3 1.29364
3 *719:Q *271:2 9
*END

*D_NET *272 0.00092233

*CONN
*I *718:Q O *C 26.67 27.09 *L 0 *D AO22JIX0
*I *602:D I *C 24.57 24.15 *L 0.00167 *D SDFRRQJIX1

*CAP
1 *718:Q 2.87105e-05
2 *602:D 5.28501e-05
3 *272:2 9.07217e-05
4 *272:3 0.00025215
5 *272:4 0.000142629
6 *272:5 0.00021424
7 *272:6 0.000141029

*RES
1 *272:6 *718:Q 0.288803
2 *272:4 *272:6 0.866272
3 *272:5 *272:4 9
4 *272:3 *272:5 1.1088
5 *272:2 *272:3 0.369553
6 *602:D *272:2 9
*END

*D_NET *273 0.00147968

*CONN
*I *717:Q O *C 40.11 27.09 *L 0 *D AO22JIX0
*I *601:D I *C 35.49 24.15 *L 0.00167 *D SDFRRQJIX1

*CAP
1 *717:Q 2.87128e-05
2 *601:D 5.28498e-05
3 *273:2 0.000299499
4 *273:3 0.00040036
5 *273:4 0.000299499
6 *273:5 0.000398759

*RES
1 *273:5 *717:Q 0.288803
2 *273:3 *273:5 3.17628
3 *273:4 *273:3 9
4 *273:2 *273:4 1.1088
5 *601:D *273:2 9
*END

*D_NET *274 0.00075412

*CONN
*I *716:Q O *C 36.75 27.09 *L 0 *D AO22JIX0
*I *600:D I *C 35.91 31.71 *L 0.00167 *D SDFRRQJIX1

*CAP
1 *716:Q 5.15412e-05
2 *600:D 5.28496e-05
3 *274:2 8.1848e-05
4 *274:3 0.00028394
5 *274:4 0.00028394

*RES
1 *274:4 *600:D 9
2 *274:3 *274:4 1.29364
3 *274:2 *274:3 9
4 *274:2 *716:Q 0.577469
*END

*D_NET *275 0.00117432

*CONN
*I *715:Q O *C 105.63 110.25 *L 0 *D AO22JIX0
*I *645:D I *C 102.27 107.31 *L 0.00167 *D SDFRRQJIX1

*CAP
1 *715:Q 0.000232702
2 *645:D 5.28508e-05
3 *275:2 0.00024479
4 *275:3 0.000252022
5 *275:4 6.80892e-05
6 *275:5 0.00026301
7 *275:6 6.08613e-05

*RES
1 *275:5 *715:Q 2.02121
2 *275:6 *275:5 9
3 *275:4 *275:6 0.369553
4 *275:3 *275:4 0.184845
5 *275:2 *275:3 0.92395
6 *645:D *275:2 9
*END

*D_NET *276 0.00092112

*CONN
*I *714:Q O *C 23.31 27.09 *L 0 *D AO22JIX0
*I *599:D I *C 24.99 31.71 *L 0.00167 *D SDFRRQJIX1

*CAP
1 *714:Q 5.28478e-05
2 *599:D 5.28478e-05
3 *276:2 0.000113682
4 *276:3 0.000212369
5 *276:4 0.00029403
6 *276:5 0.000195338

*RES
1 *276:5 *599:D 9
2 *276:4 *276:5 0.739243
3 *276:3 *276:4 0.739243
4 *276:2 *276:3 0.554398
5 *714:Q *276:2 9
*END

*D_NET *277 0.00274374

*CONN
*I *713:Q O *C 111.09 108.15 *L 0 *D AO22JIX0
*I *644:D I *C 104.37 99.75 *L 0.00167 *D SDFRRQJIX1

*CAP
1 *713:Q 5.74137e-05
2 *644:D 5.28522e-05
3 *277:2 0.00055154
4 *277:3 0.000101311
5 *277:4 0.00055154
6 *277:5 0.000284956
7 *277:6 0.000354968
8 *277:7 0.000171324
9 *277:8 0.00011832
10 *277:9 0.000177047
11 *277:10 0.00011832
12 *277:11 0.000204146

*RES
1 *277:11 *713:Q 0.577469
2 *277:9 *277:11 1.15494
3 *277:10 *277:9 9
4 *277:8 *277:10 0.554398
5 *277:7 *277:8 9
6 *277:6 *277:7 1.15494
7 *277:5 *277:6 1.73254
8 *277:3 *277:5 0.577469
9 *277:4 *277:3 9
10 *277:2 *277:4 2.21759
11 *644:D *277:2 9
*END

*D_NET *278 0.0023413

*CONN
*I *712:Q O *C 108.99 102.69 *L 0 *D AO22JIX0
*I *643:D I *C 103.11 95.97 *L 0.00167 *D SDFRRQJIX1

*CAP
1 *712:Q 8.23649e-05
2 *643:D 5.2854e-05
3 *278:2 0.00070174
4 *278:3 9.03958e-05
5 *278:4 0.00070174
6 *278:5 8.25791e-05
7 *278:6 0.00025928
8 *278:7 0.000111073
9 *278:8 0.00025928

*RES
1 *278:7 *712:Q 0.866272
2 *278:7 *278:8 0.288803
3 *278:6 *278:8 2.59882
4 *278:5 *278:6 0.288803
5 *278:3 *278:5 0.577469
6 *278:4 *278:3 9
7 *278:2 *278:4 2.77199
8 *643:D *278:2 9
*END

*D_NET *279 0.00126534

*CONN
*I *711:Q O *C 88.83 102.69 *L 0 *D AO22JIX0
*I *642:D I *C 93.45 99.75 *L 0.00167 *D SDFRRQJIX1

*CAP
1 *711:Q 2.87119e-05
2 *642:D 5.28487e-05
3 *279:2 0.00028341
4 *279:3 0.00016296
5 *279:4 0.00028501
6 *279:5 6.54521e-05
7 *279:6 0.000144721
8 *279:7 0.000242229

*RES
1 *279:6 *642:D 9
2 *279:6 *279:7 0.92395
3 *279:3 *279:7 0.739243
4 *279:3 *279:5 0.184845
5 *279:4 *279:5 9
6 *279:2 *279:4 2.02121
7 *279:2 *711:Q 0.288803
*END

*D_NET *280 0.00173344

*CONN
*I *710:Q O *C 99.33 110.25 *L 0 *D AO22JIX0
*I *641:D I *C 94.29 103.53 *L 0.00167 *D SDFRRQJIX1

*CAP
1 *710:Q 0.000132231
2 *641:D 5.28498e-05
3 *280:2 0.00040998
4 *280:3 0.000284531
5 *280:4 0.00040998
6 *280:5 0.000282929
7 *280:6 0.000160939

*RES
1 *280:6 *710:Q 1.44374
2 *280:5 *280:6 0.288803
3 *280:3 *280:5 2.02121
4 *280:4 *280:3 9
5 *280:2 *280:4 2.58714
6 *641:D *280:2 9
*END

*D_NET *281 0.00079074

*CONN
*I *709:Q O *C 93.87 110.25 *L 0 *D AO22JIX0
*I *640:D I *C 91.35 107.31 *L 0.00167 *D SDFRRQJIX1

*CAP
1 *709:Q 0.000158671
2 *640:D 5.28508e-05
3 *281:2 0.00019512
4 *281:3 0.000188981
5 *281:4 0.00019512

*RES
1 *281:3 *709:Q 1.73254
2 *281:4 *281:3 9
3 *281:2 *281:4 1.29364
4 *640:D *281:2 9
*END

*D_NET *282 0.00185544

*CONN
*I *708:Q O *C 85.47 102.69 *L 0 *D AO22JIX0
*I *639:D I *C 80.01 95.97 *L 0.00167 *D SDFRRQJIX1

*CAP
1 *708:Q 2.8709e-05
2 *639:D 5.28511e-05
3 *282:2 0.000178213
4 *282:3 0.000366
5 *282:4 0.00045833
6 *282:5 0.000251199
7 *282:6 0.000270543
8 *282:7 0.000249597

*RES
1 *282:7 *708:Q 0.288803
2 *282:5 *282:7 1.73254
3 *282:6 *282:5 9
4 *282:4 *282:6 1.66319
5 *282:3 *282:4 1.29364
6 *282:2 *282:3 0.92395
7 *639:D *282:2 9
*END

*D_NET *283 0.00101856

*CONN
*I *707:Q O *C 82.53 102.69 *L 0 *D AO22JIX0
*I *638:D I *C 81.27 99.75 *L 0.00167 *D SDFRRQJIX1

*CAP
1 *707:Q 2.87075e-05
2 *638:D 5.28524e-05
3 *283:2 0.00032931
4 *283:3 0.00013999
5 *283:4 0.00032931
6 *283:5 0.000138392

*RES
1 *283:5 *707:Q 0.288803
2 *283:3 *283:5 0.866272
3 *283:4 *283:3 9
4 *283:2 *283:4 1.1088
5 *638:D *283:2 9
*END

*D_NET *284 0.00073195

*CONN
*I *706:Q O *C 79.59 110.25 *L 0 *D AO22JIX0
*I *637:D I *C 80.43 107.31 *L 0.00167 *D SDFRRQJIX1

*CAP
1 *706:Q 2.87102e-05
2 *637:D 5.28496e-05
3 *284:2 9.76996e-05
4 *284:3 0.00022315
5 *284:4 9.93017e-05
6 *284:5 0.00023024

*RES
1 *284:3 *637:D 9
2 *284:3 *284:5 1.1088
3 *284:4 *284:5 9
4 *284:2 *284:4 0.577469
5 *284:2 *706:Q 0.288803
*END

*D_NET *285 0.00179748

*CONN
*I *705:Q O *C 63.63 110.25 *L 0 *D AO22JIX0
*I *636:D I *C 60.27 103.53 *L 0.00167 *D SDFRRQJIX1

*CAP
1 *705:Q 0.000108712
2 *636:D 5.2852e-05
3 *285:2 0.000145098
4 *285:3 0.000152419
5 *285:4 0.00046492
6 *285:5 0.00013999
7 *285:6 0.000457599
8 *285:7 0.00013843
9 *285:8 0.000137458

*RES
1 *285:8 *705:Q 1.15494
2 *285:7 *285:8 0.288803
3 *285:5 *285:7 0.866272
4 *285:6 *285:5 9
5 *285:4 *285:6 1.84804
6 *285:3 *285:4 0.184845
7 *285:2 *285:3 0.739243
8 *636:D *285:2 9
*END

*D_NET *286 0.00098288

*CONN
*I *704:Q O *C 71.19 110.25 *L 0 *D AO22JIX0
*I *635:D I *C 69.51 107.31 *L 0.00167 *D SDFRRQJIX1

*CAP
1 *704:Q 9.80704e-05
2 *635:D 5.28481e-05
3 *286:2 0.000251222
4 *286:3 0.00025854
5 *286:4 9.74589e-05
6 *286:5 0.000134602
7 *286:6 9.01408e-05

*RES
1 *286:5 *704:Q 0.866272
2 *286:6 *286:5 9
3 *286:4 *286:6 0.369553
4 *286:3 *286:4 0.184845
5 *286:2 *286:3 0.92395
6 *635:D *286:2 9
*END

*D_NET *287 0.00173908

*CONN
*I *703:Q O *C 66.99 110.25 *L 0 *D AO22JIX0
*I *634:D I *C 71.19 103.53 *L 0.00167 *D SDFRRQJIX1

*CAP
1 *703:Q 2.8747e-05
2 *634:D 5.28487e-05
3 *287:2 0.000413771
4 *287:3 0.000414189
5 *287:4 0.00041533
6 *287:5 0.000414189

*RES
1 *287:3 *634:D 9
2 *287:3 *287:5 2.58714
3 *287:4 *287:5 9
4 *287:2 *287:4 2.88748
5 *287:2 *703:Q 0.288803
*END

*D_NET *288 0.0010228

*CONN
*I *702:Q O *C 64.05 100.59 *L 0 *D AO22JIX0
*I *633:D I *C 61.11 95.97 *L 0.00167 *D SDFRRQJIX1

*CAP
1 *702:Q 5.75019e-05
2 *633:D 5.28486e-05
3 *288:2 0.000168179
4 *288:3 0.000274452
5 *288:4 0.000168179
6 *288:5 0.00030164

*RES
1 *288:5 *702:Q 0.577469
2 *288:3 *288:5 2.02121
3 *288:4 *288:3 9
4 *288:2 *288:4 0.92395
5 *633:D *288:2 9
*END

*D_NET *289 0.00076612

*CONN
*I *701:Q O *C 58.59 110.25 *L 0 *D AO22JIX0
*I *632:D I *C 57.75 107.31 *L 0.00167 *D SDFRRQJIX1

*CAP
1 *701:Q 5.49021e-05
2 *632:D 5.28512e-05
3 *289:2 0.00028658
4 *289:3 8.52109e-05
5 *289:4 0.00028658

*RES
1 *289:3 *701:Q 0.577469
2 *289:4 *289:3 9
3 *289:2 *289:4 1.29364
4 *632:D *289:2 9
*END

*D_NET *290 0.00157348

*CONN
*I *700:Q O *C 55.23 102.69 *L 0 *D AO22JIX0
*I *631:D I *C 46.41 103.53 *L 0.00167 *D SDFRRQJIX1

*CAP
1 *700:Q 5.28513e-05
2 *631:D 5.28513e-05
3 *290:4 4.57106e-05
4 *290:5 0.00068818
5 *290:6 4.57106e-05
6 *290:7 0.00068818

*RES
1 *290:4 *631:D 9
2 *290:3 *290:4 0.256805
3 *290:5 *290:4 9
4 *290:5 *290:7 3.88078
5 *290:6 *290:7 9
6 *290:6 *700:Q 9
7 *290:2 *290:6 0.256805
*END

*D_NET *291 0.00204382

*CONN
*I *699:Q O *C 51.03 100.59 *L 0 *D AO22JIX0
*I *630:D I *C 48.09 92.19 *L 0.00167 *D SDFRRQJIX1

*CAP
1 *699:Q 2.87523e-05
2 *630:D 5.28472e-05
3 *291:2 0.00015062
4 *291:3 0.000157939
5 *291:4 0.000135628
6 *291:5 0.000288138
7 *291:6 0.000128309
8 *291:7 0.0004075
9 *291:8 0.0004075
10 *291:9 0.000286578

*RES
1 *699:Q *291:9 0.288803
2 *291:5 *291:9 2.02121
3 *291:6 *291:5 9
4 *291:4 *291:6 0.92395
5 *291:4 *291:8 0.184845
6 *291:7 *291:8 2.40244
7 *291:3 *291:7 0.184845
8 *291:2 *291:3 0.554398
9 *630:D *291:2 9
*END

*D_NET *292 0.00087508

*CONN
*I *698:Q O *C 48.09 100.59 *L 0 *D AO22JIX0
*I *629:D I *C 46.83 95.97 *L 0.00167 *D SDFRRQJIX1

*CAP
1 *698:Q 5.74996e-05
2 *629:D 5.28496e-05
3 *292:2 0.00022878
4 *292:3 0.000139991
5 *292:4 0.00022878
6 *292:5 0.000167179

*RES
1 *292:5 *698:Q 0.577469
2 *292:3 *292:5 0.866272
3 *292:4 *292:3 9
4 *292:2 *292:4 0.92395
5 *629:D *292:2 9
*END

*D_NET *293 0.00091686

*CONN
*I *697:Q O *C 38.43 110.25 *L 0 *D AO22JIX0
*I *628:D I *C 35.91 107.31 *L 0.00167 *D SDFRRQJIX1

*CAP
1 *697:Q 0.000111189
2 *628:D 5.28495e-05
3 *293:2 0.000183069
4 *293:3 0.00022031
5 *293:4 0.000122592
6 *293:5 0.000141501
7 *293:6 8.53506e-05

*RES
1 *293:5 *697:Q 1.15494
2 *293:6 *293:5 9
3 *293:4 *293:6 0.369553
4 *293:3 *293:4 0.369553
5 *293:2 *293:3 0.92395
6 *628:D *293:2 9
*END

*D_NET *294 0.0013165

*CONN
*I *696:Q O *C 28.35 110.25 *L 0 *D AO22JIX0
*I *627:D I *C 24.99 107.31 *L 0.00167 *D SDFRRQJIX1

*CAP
1 *696:Q 2.64499e-05
2 *627:D 5.28483e-05
3 *294:2 0.00030685
4 *294:3 0.00028497
5 *294:4 0.00030685
6 *294:5 0.000283369
7 *294:6 5.51614e-05

*RES
1 *294:6 *696:Q 0.288803
2 *294:5 *294:6 0.288803
3 *294:3 *294:5 2.02121
4 *294:4 *294:3 9
5 *294:2 *294:4 1.1088
6 *627:D *294:2 9
*END

*D_NET *295 0.00230147

*CONN
*I *694:Q O *C 69.93 93.03 *L 0 *D ON31JIX0
*I *646:D I *C 59.01 92.19 *L 0.00167 *D SDFRRQJIX1

*CAP
1 *694:Q 2.87511e-05
2 *646:D 5.28483e-05
3 *295:3 0.000163463
4 *295:4 0.000163463
5 *295:5 0.00075308
6 *295:6 0.000171323
7 *295:7 4.57123e-05
8 *295:8 0.00075308
9 *295:9 0.00016976

*RES
1 *295:3 *646:D 9
2 *295:3 *295:4 0.554398
3 *295:5 *295:4 9
4 *694:Q *295:9 0.288803
5 *295:5 *295:8 4.06563
6 *295:6 *295:9 1.15494
7 *295:7 *295:8 9
8 *295:7 *295:6 9
9 *295:2 *295:7 0.256805
*END

*D_NET *296 0.00081044

*CONN
*I *693:Q O *C 48.09 110.25 *L 0 *D AO22JIX0
*I *625:D I *C 46.83 107.31 *L 0.00167 *D SDFRRQJIX1

*CAP
1 *693:Q 0.000108919
2 *625:D 5.28485e-05
3 *296:2 0.00025472
4 *296:3 0.000139228
5 *296:4 0.00025472

*RES
1 *296:3 *693:Q 0.866272
2 *296:4 *296:3 9
3 *296:2 *296:4 1.29364
4 *625:D *296:2 9
*END

*D_NET *297 0.00151204

*CONN
*I *692:Q O *C 33.39 110.25 *L 0 *D AO22JIX0
*I *624:D I *C 35.49 103.53 *L 0.00167 *D SDFRRQJIX1

*CAP
1 *692:Q 2.87087e-05
2 *624:D 5.28504e-05
3 *297:2 0.000156332
4 *297:3 0.00032675
5 *297:4 0.00032675
6 *297:5 0.000174122
7 *297:6 0.000181312
8 *297:7 5.7238e-05
9 *297:8 0.000157928
10 *297:9 5.00483e-05

*RES
1 *297:5 *624:D 9
2 *297:5 *297:6 0.92395
3 *297:3 *297:6 0.184845
4 *297:3 *297:4 1.47835
5 *297:4 *297:7 0.184845
6 *297:7 *297:9 0.184845
7 *297:8 *297:9 9
8 *297:2 *297:8 1.44374
9 *297:2 *692:Q 0.288803
*END

*D_NET *298 0.00106209

*CONN
*I *691:Q O *C 22.47 100.59 *L 0 *D AO22JIX0
*I *623:D I *C 27.51 99.75 *L 0.00167 *D SDFRRQJIX1

*CAP
1 *691:Q 5.28487e-05
2 *623:D 5.28487e-05
3 *298:3 4.57117e-05
4 *298:4 0.00034493
5 *298:5 0.000110408
6 *298:6 0.000110408
7 *298:7 0.00034493

*RES
1 *298:5 *623:D 9
2 *298:5 *298:6 0.369553
3 *298:7 *298:6 9
4 *298:4 *298:7 2.21759
5 *298:3 *298:4 9
6 *298:3 *691:Q 9
7 *298:2 *298:3 0.256805
*END

*D_NET *299 0.00097897

*CONN
*I *690:Q O *C 32.55 80.01 *L 0 *D AO22JIX0
*I *620:D I *C 37.59 80.85 *L 0.00167 *D SDFRRQJIX1

*CAP
1 *690:Q 5.28515e-05
2 *620:D 5.28515e-05
3 *299:3 4.57108e-05
4 *299:4 0.00035372
5 *299:5 6.00625e-05
6 *299:6 6.00625e-05
7 *299:7 0.00035372

*RES
1 *299:5 *620:D 9
2 *299:5 *299:6 0.184845
3 *299:7 *299:6 9
4 *299:4 *299:7 2.40244
5 *299:3 *299:4 9
6 *299:3 *690:Q 9
7 *299:2 *299:3 0.256805
*END

*D_NET *300 0.00094078

*CONN
*I *689:Q O *C 38.85 95.13 *L 0 *D AO22JIX0
*I *622:D I *C 37.17 92.19 *L 0.00167 *D SDFRRQJIX1

*CAP
1 *689:Q 2.87485e-05
2 *622:D 5.28488e-05
3 *300:2 0.00024686
4 *300:3 0.000183509
5 *300:4 0.00024686
6 *300:5 0.00018195

*RES
1 *300:5 *689:Q 0.288803
2 *300:3 *300:5 1.15494
3 *300:4 *300:3 9
4 *300:2 *300:4 1.1088
5 *622:D *300:2 9
*END

*D_NET *301 0.00098815

*CONN
*I *688:Q O *C 22.47 95.13 *L 0 *D AO22JIX0
*I *621:D I *C 27.51 95.97 *L 0.00167 *D SDFRRQJIX1

*CAP
1 *688:Q 5.28519e-05
2 *621:D 5.28519e-05
3 *301:3 5.9999e-05
4 *301:4 5.9999e-05
5 *301:5 0.00035837
6 *301:6 4.57102e-05
7 *301:7 0.00035837

*RES
1 *301:3 *688:Q 9
2 *301:3 *301:4 0.184845
3 *301:5 *301:4 9
4 *301:5 *301:7 2.03275
5 *301:6 *621:D 9
6 *301:6 *301:7 9
7 *301:2 *301:6 0.256805
*END

*D_NET *302 0.00300442

*CONN
*I *681:A I *C 56.49 77.49 *L 0.00158 *D AO21JIX0
*I *550:Q O *C 63.63 84.21 *L 0 *D NA3I1JIX0

*CAP
1 *681:A 5.28466e-05
2 *550:Q 2.87514e-05
3 *302:2 0.00078444
4 *302:3 0.000677753
5 *302:4 0.00078444
6 *302:5 0.000676185

*RES
1 *550:Q *302:5 0.288803
2 *302:3 *302:5 5.19749
3 *302:4 *302:3 9
4 *302:2 *302:4 3.69594
5 *681:A *302:2 9
*END

*D_NET *303 0.00134612

*CONN
*I *687:Q O *C 24.57 110.25 *L 0 *D AO22JIX0
*I *626:D I *C 24.57 103.53 *L 0.00167 *D SDFRRQJIX1

*CAP
1 *687:Q 2.64523e-05
2 *626:D 5.2848e-05
3 *303:2 0.00033707
4 *303:3 6.52384e-05
5 *303:4 0.00032988
6 *303:5 5.51625e-05
7 *303:6 0.000236142
8 *303:7 0.000243332

*RES
1 *303:5 *687:Q 0.288803
2 *303:6 *626:D 9
3 *303:3 *303:5 0.288803
4 *303:6 *303:7 0.92395
5 *303:4 *303:3 9
6 *303:2 *303:7 0.184845
7 *303:2 *303:4 1.66319
*END

*D_NET *304 0.00489808

*CONN
*I *695:Q O *C 69.09 87.57 *L 0 *D AO21JIX0
*I *686:A I *C 65.31 85.05 *L 0.0016 *D NA2JIX0
*I *685:A I *C 52.71 85.05 *L 0.0016 *D NA2JIX0

*CAP
1 *695:Q 5.28616e-05
2 *686:A 5.28616e-05
3 *685:A 5.28616e-05
4 *304:3 0.000351022
5 *304:4 0.001201
6 *304:5 0.000351022
7 *304:6 0.000356576
8 *304:7 0.00156897
9 *304:8 0.000356576
10 *304:9 6.67713e-05
11 *304:10 0.00042081
12 *304:11 6.67713e-05

*RES
1 *304:9 *695:Q 9
2 *304:6 *686:A 9
3 *304:9 *304:11 0.369553
4 *304:6 *304:8 2.03275
5 *304:10 *304:11 9
6 *304:7 *304:8 9
7 *304:7 *304:10 2.59882
8 *304:4 *304:7 8.66245
9 *304:5 *304:4 9
10 *304:3 *304:5 2.03275
11 *685:A *304:3 9
*END

*D_NET *305 0.00076766

*CONN
*I *686:Q O *C 65.31 84.21 *L 0 *D NA2JIX0
*I *683:C I *C 64.05 80.43 *L 0.00162 *D ON21JIX0

*CAP
1 *686:Q 5.28482e-05
2 *683:C 7.81703e-05
3 *305:2 0.000108481
4 *305:3 0.00026408
5 *305:4 0.00026408

*RES
1 *305:4 *686:Q 9
2 *305:3 *305:4 1.47835
3 *305:2 *305:3 9
4 *683:C *305:2 0.866272
*END

*D_NET *306 0.00114236

*CONN
*I *685:Q O *C 52.71 84.21 *L 0 *D NA2JIX0
*I *682:C I *C 49.35 85.05 *L 0.00162 *D ON21JIX0

*CAP
1 *685:Q 5.75029e-05
2 *682:C 5.28496e-05
3 *306:2 0.000366303
4 *306:3 0.000136111
5 *306:4 0.000136111
6 *306:5 0.00039349

*RES
1 *306:4 *682:C 9
2 *306:3 *306:4 0.739243
3 *306:5 *685:Q 0.577469
4 *306:2 *306:3 9
5 *306:2 *306:5 2.59882
*END

*D_NET *307 0.00075614

*CONN
*I *684:Q O *C 72.45 87.57 *L 0 *D AO32JIX0
*I *647:D I *C 70.77 84.63 *L 0.00167 *D SDFRRQJIX1

*CAP
1 *684:Q 7.42288e-05
2 *647:D 5.285e-05
3 *307:2 0.000142341
4 *307:3 0.00017983
5 *307:4 0.00011992
6 *307:5 0.000104539
7 *307:6 8.24307e-05

*RES
1 *307:5 *684:Q 0.577469
2 *307:6 *307:5 9
3 *307:4 *307:6 0.369553
4 *307:3 *307:4 0.369553
5 *307:2 *307:3 0.92395
6 *647:D *307:2 9
*END

*D_NET *308 0.00082038

*CONN
*I *683:Q O *C 64.05 81.27 *L 0 *D ON21JIX0
*I *649:D I *C 61.11 77.07 *L 0.00167 *D SDFRRQJIX1

*CAP
1 *683:Q 5.53181e-05
2 *649:D 5.28505e-05
3 *308:2 0.000243791
4 *308:3 0.00025111
5 *308:4 6.94992e-05
6 *308:5 8.56307e-05
7 *308:6 6.21807e-05

*RES
1 *308:5 *683:Q 0.577469
2 *308:6 *308:5 9
3 *308:4 *308:6 0.369553
4 *308:3 *308:4 0.184845
5 *308:2 *308:3 1.47835
6 *649:D *308:2 9
*END

*D_NET *309 0.00072986

*CONN
*I *682:Q O *C 49.35 84.21 *L 0 *D ON21JIX0
*I *648:D I *C 48.51 80.85 *L 0.00167 *D SDFRRQJIX1

*CAP
1 *682:Q 5.28492e-05
2 *648:D 5.28492e-05
3 *309:2 9.769e-05
4 *309:3 0.000165359
5 *309:4 0.00021439
6 *309:5 0.000146721

*RES
1 *309:5 *682:Q 9
2 *309:4 *309:5 0.739243
3 *309:3 *309:4 0.554398
4 *309:2 *309:3 0.554398
5 *648:D *309:2 9
*END

*D_NET *310 0.0014078

*CONN
*I *681:Q O *C 55.23 77.91 *L 0 *D AO21JIX0
*I *650:D I *C 46.41 77.07 *L 0.00167 *D SDFRRQJIX1

*CAP
1 *681:Q 5.28535e-05
2 *650:D 5.28535e-05
3 *310:4 4.57134e-05
4 *310:5 0.00060534
5 *310:6 4.57134e-05
6 *310:7 0.00060534

*RES
1 *310:4 *650:D 9
2 *310:3 *310:4 0.256805
3 *310:5 *310:4 9
4 *310:5 *310:7 3.88078
5 *310:6 *310:7 9
6 *310:6 *681:Q 9
7 *310:2 *310:6 0.256805
*END

*D_NET *311 0.00234618

*CONN
*I *595:Q O *C 66.15 87.57 *L 0 *D NO2JIX0
*I *589:AN I *C 62.79 87.99 *L 0.00163 *D NO2I1JIX0
*I *588:AN I *C 55.23 87.99 *L 0.00163 *D NO2I1JIX0
*I *587:A I *C 57.75 87.99 *L 0.00156 *D AND3JIX0

*CAP
1 *595:Q 4.31978e-05
2 *589:AN 2.76596e-05
3 *588:AN 2.76596e-05
4 *587:A 2.76596e-05
5 *311:4 0.000275759
6 *311:5 8.51551e-05
7 *311:6 0.00071309
8 *311:7 8.51551e-05
9 *311:8 0.000684897
10 *311:9 8.51551e-05
11 *311:10 0.000218818
12 *311:11 7.19455e-05

*RES
1 *311:11 *595:Q 0.577518
2 *311:9 *589:AN 0.288732
3 *311:10 *311:11 0.288732
4 *311:7 *587:A 0.288732
5 *311:8 *311:9 0.577518
6 *311:8 *311:10 2.02123
7 *311:5 *588:AN 0.288732
8 *311:6 *311:7 0.577518
9 *311:6 *311:8 3.46499991
10 *311:4 *311:5 0.577518
11 *311:4 *311:6 1.7325
*END

*D_NET *312 0.0029933

*CONN
*I *597:AN I *C 57.33 80.43 *L 0.00164 *D NA3I1JIX0
*I *594:Q O *C 67.83 84.21 *L 0 *D NA2I1JIX0
*I *593:A I *C 60.69 85.05 *L 0.00159 *D NO2JIX0
*I *592:A I *C 59.01 85.05 *L 0.00159 *D NO2JIX0

*CAP
1 *597:AN 5.28494e-05
2 *594:Q 5.75021e-05
3 *593:A 5.28494e-05
4 *592:A 5.28494e-05
5 *312:4 0.000155626
6 *312:5 0.000155626
7 *312:6 0.000148856
8 *312:7 0.000159984
9 *312:8 0.000148856
10 *312:9 0.00030772
11 *312:10 7.27532e-05
12 *312:11 0.000640017
13 *312:12 5.00497e-05
14 *312:13 0.000197786
15 *312:14 7.27532e-05
16 *312:15 0.00066721

*RES
1 *312:15 *594:Q 0.577469
2 *312:11 *312:15 4.90869
3 *312:12 *312:11 9
4 *312:14 *593:A 9
5 *312:10 *592:A 9
6 *312:12 *312:13 0.184845
7 *312:13 *312:14 0.369553
8 *312:9 *312:10 0.369553
9 *312:9 *312:13 0.739243
10 *312:7 *312:9 0.739243
11 *312:8 *312:7 9
12 *312:6 *312:8 0.739243
13 *312:5 *312:6 9
14 *312:4 *312:5 0.554398
15 *597:AN *312:4 9
*END

*D_NET *313 0.017711

*CONN
*I *593:Q O *C 60.69 85.47 *L 0 *D NO2JIX0
*I *591:A I *C 47.67 85.05 *L 0.00164 *D INVJIX0
*I *582:C I *C 37.59 62.37 *L 0.00157 *D AN22JIX0
*I *581:C I *C 68.67 100.17 *L 0.00157 *D AN22JIX0
*I *580:C I *C 34.65 87.99 *L 0.00157 *D AN22JIX0
*I *579:C I *C 38.85 100.17 *L 0.00157 *D AN22JIX0
*I *578:C I *C 36.33 50.19 *L 0.00157 *D AN22JIX0
*I *577:C I *C 75.81 95.55 *L 0.00157 *D AN22JIX0

*CAP
1 *593:Q 5.2849e-05
2 *591:A 8.78062e-05
3 *582:C 5.2849e-05
4 *581:C 5.2849e-05
5 *580:C 5.2849e-05
6 *579:C 5.2849e-05
7 *578:C 5.2849e-05
8 *577:C 5.2849e-05
9 *313:11 0.000107214
10 *313:12 0.000107214
11 *313:13 0.000318807
12 *313:14 8.81014e-05
13 *313:15 9.56204e-05
14 *313:16 0.000333097
15 *313:17 0.000333097
16 *313:18 0.000346658
17 *313:19 0.000346658
18 *313:20 0.000136325
19 *313:21 0.000231453
20 *313:22 0.000116858
21 *313:23 0.000146088
22 *313:24 0.000422399
23 *313:25 0.000536068
24 *313:26 0.000215963
25 *313:27 4.57041e-05
26 *313:28 0.000536068
27 *313:29 0.000215963
28 *313:30 0.000159708
29 *313:31 0.000146088
30 *313:32 0.000167031
31 *313:33 0.000517409
32 *313:34 0.000547583
33 *313:35 0.000360377
34 *313:36 0.000360377
35 *313:37 0.000460269
36 *313:38 0.000666744
37 *313:39 0.000876979
38 *313:40 0.000438224
39 *313:41 0.000117783
40 *313:42 0.000446353
41 *313:43 0.000416179
42 *313:44 6.47376e-05
43 *313:45 6.47376e-05
44 *313:46 0.000896662
45 *313:47 0.000693927
46 *313:48 4.57041e-05
47 *313:49 0.00128993
48 *313:50 0.000407459
49 *313:51 0.00069184
50 *313:52 0.000186596
51 *313:53 0.00069184
52 *313:54 0.000224131
53 *313:55 0.000645231
54 *313:56 0.000224131
55 *313:57 0.000146521
56 *313:58 0.000146521
57 *313:59 0.000472827

*RES
1 *313:14 *578:C 9
2 *313:14 *313:15 0.461975
3 *313:15 *313:16 0.184845
4 *313:16 *313:17 2.03275
5 *313:17 *313:18 0.184845
6 *313:18 *313:19 2.03275
7 *313:57 *577:C 9
8 *313:19 *313:20 0.184845
9 *313:56 *581:C 9
10 *313:57 *313:58 0.64682
11 *313:21 *582:C 9
12 *313:20 *313:21 0.64682
13 *313:54 *313:56 1.20122
14 *313:59 *313:58 9
15 *313:21 *313:22 0.64682
16 *313:55 *313:54 9
17 *313:55 *313:59 3.14154
18 *313:23 *313:22 9
19 *313:52 *313:55 0.92395
20 *313:23 *313:31 1.1088
21 *313:53 *313:52 9
22 *313:30 *313:31 9
23 *313:51 *313:53 5.17442
24 *313:30 *313:32 0.554398
25 *313:50 *313:51 9
26 *313:9 *313:48 0.256805
27 *313:48 *593:Q 9
28 *313:32 *313:35 0.184845
29 *313:49 *313:50 2.40244
30 *313:49 *313:48 9
31 *313:35 *313:36 2.03275
32 *313:46 *313:49 5.91367
33 *313:33 *313:36 0.184845
34 *313:45 *313:46 9
35 *313:33 *313:34 2.95683
36 *313:10 *313:44 0.0811615
37 *313:44 *313:45 0.184845
38 *313:34 *313:42 0.369553
39 *591:A *313:44 9
40 *313:42 *313:43 1.66319
41 *591:A *313:47 0.577469
42 *313:37 *313:43 0.184845
43 *313:38 *313:47 4.90869
44 *313:11 *580:C 9
45 *313:37 *313:39 2.58714
46 *313:39 *313:38 9
47 *313:11 *313:12 0.64682
48 *313:39 *313:40 1.66319
49 *313:13 *313:12 9
50 *313:41 *313:40 9
51 *313:13 *313:24 1.84804
52 *313:24 *313:41 0.739243
53 *313:29 *579:C 9
54 *313:25 *313:24 9
55 *313:26 *313:29 0.831665
56 *313:25 *313:28 3.69594
57 *313:27 *313:26 9
58 *313:27 *313:28 9
59 *313:8 *313:27 0.256805
*END

*D_NET *314 0.0210431

*CONN
*I *590:Q O *C 60.69 81.27 *L 0 *D INVJIX0
*I *573:C I *C 33.39 50.19 *L 0.00157 *D AN22JIX0
*I *572:C I *C 30.87 80.43 *L 0.00157 *D AN22JIX0
*I *568:C I *C 30.45 50.19 *L 0.00157 *D AN22JIX0
*I *564:C I *C 71.61 100.17 *L 0.00157 *D AN22JIX0
*I *561:C I *C 37.59 95.55 *L 0.00157 *D AN22JIX0
*I *559:C I *C 55.23 100.17 *L 0.00157 *D AN22JIX0

*CAP
1 *590:Q 5.74849e-05
2 *573:C 5.2852e-05
3 *572:C 5.2852e-05
4 *568:C 5.2852e-05
5 *564:C 5.2852e-05
6 *561:C 5.2852e-05
7 *559:C 5.2852e-05
8 *314:7 3.43946e-05
9 *314:8 7.2273e-05
10 *314:9 0.00129799
11 *314:10 0.0012908
12 *314:11 0.000475557
13 *314:12 0.00227619
14 *314:13 0.00242893
15 *314:14 0.000181646
16 *314:15 0.00011964
17 *314:16 0.000468774
18 *314:17 0.000288388
19 *314:18 8.632e-05
20 *314:19 0.000215411
21 *314:20 0.000483117
22 *314:21 0.000117861
23 *314:22 0.000108743
24 *314:23 0.00141852
25 *314:24 0.000108743
26 *314:25 0.000362292
27 *314:26 0.000324784
28 *314:27 0.000458174
29 *314:28 0.00113758
30 *314:29 0.00114492
31 *314:30 0.000117268
32 *314:31 0.000413216
33 *314:32 0.00234684
34 *314:33 0.000354916
35 *314:34 0.000485378
36 *314:35 0.000505578
37 *314:36 0.00103869
38 *314:37 0.000505578

*RES
1 *590:Q *314:34 0.577497
2 *314:27 *314:34 3.46498
3 *314:28 *314:27 9.00003
4 *314:26 *559:C 9.00003
5 *314:37 *564:C 9.00003
6 *314:28 *314:29 4.9896
7 *314:25 *314:26 1.20113
8 *314:35 *314:37 2.49488
9 *314:29 *314:30 0.184725
10 *314:25 *314:33 0.369618
11 *314:24 *561:C 9.00003
12 *314:36 *314:35 9.00003
13 *314:30 *314:31 0.369618
14 *314:31 *314:33 1.29358
15 *314:22 *314:24 0.64679
16 *314:32 *314:36 6.83752
17 *314:32 *314:31 9.00003
18 *314:23 *314:22 9.00003
19 *314:23 *314:32 8.13127
20 *314:21 *314:23 0.369618
21 *314:20 *314:21 0.184725
22 *314:11 *314:20 2.77205
23 *314:10 *314:11 9.00003
24 *314:9 *314:10 4.9896
25 *314:9 *314:14 0.184725
26 *314:13 *572:C 9.00003
27 *314:13 *314:14 0.831683
28 *314:18 *573:C 9.00003
29 *314:12 *314:13 10.9955997
30 *314:18 *314:19 0.462065
31 *314:12 *314:17 0.184725
32 *314:16 *314:19 0.923962
33 *314:16 *314:17 1.84792
34 *314:15 *314:16 0.369618
35 *314:8 *314:15 0.369618
36 *314:7 *314:8 0.0924465
37 *568:C *314:7 9.00003
*END

*D_NET *315 0.00108334

*CONN
*I *592:Q O *C 59.01 85.47 *L 0 *D NO2JIX0
*I *585:AN I *C 53.97 85.05 *L 0.00163 *D NO2I1JIX0
*I *584:A I *C 56.07 85.05 *L 0.00153 *D AND2JIX0

*CAP
1 *592:Q 2.87523e-05
2 *585:AN 2.76623e-05
3 *584:A 5.74981e-05
4 *315:3 0.000203472
5 *315:4 8.51604e-05
6 *315:5 0.00042776
7 *315:6 0.00025304

*RES
1 *315:6 *592:Q 0.28875
2 *315:4 *585:AN 0.28875
3 *315:5 *584:A 0.5775
4 *315:5 *315:6 2.30999994
5 *315:3 *315:4 0.5775
6 *315:3 *315:5 1.7325
*END

*D_NET *316 0.0189297

*CONN
*I *589:Q O *C 64.05 87.57 *L 0 *D NO2I1JIX0
*I *582:A I *C 37.17 62.37 *L 0.00158 *D AN22JIX0
*I *581:A I *C 68.25 100.17 *L 0.00158 *D AN22JIX0
*I *580:A I *C 34.23 87.99 *L 0.00158 *D AN22JIX0
*I *579:A I *C 38.43 100.17 *L 0.00158 *D AN22JIX0
*I *578:A I *C 35.91 50.19 *L 0.00158 *D AN22JIX0
*I *577:A I *C 75.39 95.55 *L 0.00158 *D AN22JIX0

*CAP
1 *589:Q 2.76496e-05
2 *582:A 5.28425e-05
3 *581:A 2.87487e-05
4 *580:A 5.28425e-05
5 *579:A 5.28425e-05
6 *578:A 2.87056e-05
7 *577:A 5.28425e-05
8 *316:8 0.000233007
9 *316:9 0.000225831
10 *316:10 0.000232791
11 *316:11 0.000145317
12 *316:12 0.000239989
13 *316:13 7.02771e-05
14 *316:14 0.00122723
15 *316:15 0.00141233
16 *316:16 0.000257575
17 *316:17 0.000206801
18 *316:18 0.000645704
19 *316:19 0.000645704
20 *316:20 6.86823e-05
21 *316:21 0.000658096
22 *316:22 0.000657751
23 *316:23 0.000184281
24 *316:24 0.000177104
25 *316:25 0.000145317
26 *316:26 0.000881707
27 *316:27 0.000164217
28 *316:28 0.000881707
29 *316:29 4.57092e-05
30 *316:30 0.000257575
31 *316:31 0.000273393
32 *316:32 0.000413258
33 *316:33 0.000273393
34 *316:34 0.00078837
35 *316:35 0.000271389
36 *316:36 0.00078837
37 *316:37 0.00101711
38 *316:38 6.41998e-05
39 *316:39 0.000248265
40 *316:40 0.000255592
41 *316:41 0.000145748
42 *316:42 0.000145748
43 *316:43 0.000335287
44 *316:44 0.000463536
45 *316:45 0.00100896
46 *316:46 8.94142e-05
47 *316:47 0.000149756
48 *316:48 0.000742424
49 *316:49 0.000110383
50 *316:50 0.00012799
51 *316:51 0.00012799
52 *316:52 0.000191931
53 *316:53 0.000743997
54 *316:54 0.000191931

*RES
1 *316:52 *577:A 9
2 *589:Q *316:38 0.288803
3 *316:52 *316:54 1.1088
4 *316:39 *316:38 9
5 *316:53 *316:54 9
6 *316:51 *581:A 0.288803
7 *316:39 *316:40 1.29364
8 *316:48 *316:53 6.06377
9 *316:50 *316:51 1.15494
10 *316:40 *316:41 0.184845
11 *316:48 *316:49 0.288803
12 *316:49 *316:50 0.288803
13 *316:41 *316:42 0.739243
14 *316:46 *316:49 0.577469
15 *316:42 *316:43 0.184845
16 *316:47 *316:46 9
17 *316:43 *316:44 1.66319
18 *316:44 *316:47 0.739243
19 *316:45 *316:44 9
20 *316:37 *316:45 5.35927
21 *316:36 *316:37 0.184845
22 *316:33 *579:A 9
23 *316:34 *316:36 4.98958
24 *316:9 *580:A 9
25 *316:31 *316:33 1.1088
26 *316:34 *316:35 0.184845
27 *316:8 *316:9 1.1088
28 *316:32 *316:31 9
29 *316:32 *316:35 1.66319
30 *316:8 *316:12 0.184845
31 *316:27 *316:32 0.92395
32 *316:10 *316:12 1.66319
33 *316:28 *316:27 9
34 *316:11 *316:10 9
35 *316:26 *316:28 6.65277
36 *316:11 *316:25 0.739243
37 *316:25 *316:26 9
38 *316:24 *316:25 9
39 *316:23 *316:24 1.29364
40 *316:22 *316:23 0.184845
41 *316:21 *316:22 3.14154
42 *578:A *316:20 0.288803
43 *316:19 *316:21 0.184845
44 *316:13 *316:20 0.577469
45 *316:18 *316:19 3.32639
46 *316:14 *316:13 9
47 *316:17 *316:18 0.184845
48 *316:14 *316:15 4.80473
49 *316:15 *316:17 1.1088
50 *316:16 *316:15 9
51 *316:16 *316:30 0.92395
52 *316:29 *582:A 9
53 *316:29 *316:30 9
54 *316:7 *316:29 0.0439453
*END

*D_NET *317 0.00142192

*CONN
*I *588:Q O *C 56.49 87.57 *L 0 *D NO2I1JIX0
*I *586:AN I *C 50.61 87.99 *L 0.00163 *D NO2I1JIX0
*I *583:A I *C 52.71 87.99 *L 0.00153 *D AND2JIX0

*CAP
1 *588:Q 2.87524e-05
2 *586:AN 2.76592e-05
3 *583:A 5.74957e-05
4 *317:3 8.5164e-05
5 *317:4 0.000221237
6 *317:5 0.00059705
7 *317:6 0.000404556

*RES
1 *588:Q *317:6 0.288768
2 *583:A *317:5 0.577491
3 *317:5 *317:6 2.88750005
4 *317:4 *317:5 1.73252
5 *317:3 *586:AN 0.288768
6 *317:3 *317:4 0.577491
*END

*D_NET *318 0.0200161

*CONN
*I *587:Q O *C 59.85 87.57 *L 0 *D AND3JIX0
*I *573:A I *C 32.97 50.19 *L 0.00158 *D AN22JIX0
*I *572:A I *C 30.45 80.43 *L 0.00158 *D AN22JIX0
*I *568:A I *C 30.03 50.19 *L 0.00158 *D AN22JIX0
*I *564:A I *C 71.19 100.17 *L 0.00158 *D AN22JIX0
*I *561:A I *C 37.17 95.55 *L 0.00158 *D AN22JIX0
*I *559:A I *C 54.81 100.17 *L 0.00158 *D AN22JIX0

*CAP
1 *587:Q 5.28445e-05
2 *573:A 5.28445e-05
3 *572:A 5.28445e-05
4 *568:A 5.28445e-05
5 *564:A 5.28445e-05
6 *561:A 5.28445e-05
7 *559:A 5.28445e-05
8 *318:9 0.000239093
9 *318:10 0.00024286
10 *318:11 0.000246627
11 *318:12 0.000355576
12 *318:13 0.000355576
13 *318:14 0.000429868
14 *318:15 0.000429531
15 *318:16 0.00184211
16 *318:17 0.00183491
17 *318:18 0.000497217
18 *318:19 0.00134984
19 *318:20 0.00134984
20 *318:21 0.000328508
21 *318:22 0.000328508
22 *318:23 0.000140488
23 *318:24 0.000147599
24 *318:25 4.57049e-05
25 *318:26 0.00024286
26 *318:27 0.000403136
27 *318:28 0.000403136
28 *318:29 0.00070213
29 *318:30 0.00022726
30 *318:31 0.000347537
31 *318:32 0.000636889
32 *318:33 0.000347537
33 *318:34 0.000403586
34 *318:35 0.000232572
35 *318:36 0.000516752
36 *318:37 0.000127361
37 *318:38 0.000628738
38 *318:39 0.000211153
39 *318:40 0.0012688
40 *318:41 0.000157213
41 *318:42 0.000325837
42 *318:43 0.000260625
43 *318:44 9.20001e-05
44 *318:45 0.00017197
45 *318:46 0.000377642
46 *318:47 0.00101993
47 *318:48 0.000377642

*RES
1 *318:41 *587:Q 9
2 *318:41 *318:42 0.92395
3 *318:42 *318:43 1.29364
4 *318:43 *318:44 0.554398
5 *318:48 *564:A 9
6 *318:45 *318:44 9
7 *318:46 *318:48 1.47835
8 *318:39 *318:45 0.92395
9 *318:47 *318:46 9
10 *318:39 *318:40 0.369553
11 *318:40 *318:47 5.91367
12 *318:35 *318:40 1.29364
13 *318:34 *318:35 9
14 *318:36 *559:A 9
15 *318:34 *318:36 1.47835
16 *318:36 *318:37 0.554398
17 *318:38 *318:37 9
18 *318:32 *318:38 3.88078
19 *318:32 *318:33 0.184845
20 *318:27 *561:A 9
21 *318:31 *318:33 2.21759
22 *318:27 *318:28 2.21759
23 *318:30 *318:31 0.184845
24 *318:29 *318:28 9
25 *318:29 *318:30 1.66319
26 *318:18 *318:29 3.14154
27 *318:17 *318:18 9
28 *318:16 *318:17 8.87036
29 *318:24 *572:A 9
30 *318:16 *318:24 0.184845
31 *318:23 *318:24 0.554398
32 *318:15 *318:23 0.184845
33 *318:14 *318:15 2.40244
34 *318:14 *318:22 0.184845
35 *318:21 *318:22 1.29364
36 *318:13 *318:21 0.184845
37 *318:12 *318:13 2.03275
38 *318:12 *318:20 0.184845
39 *318:19 *318:20 5.54398
40 *318:11 *318:19 0.184845
41 *318:9 *568:A 9
42 *318:8 *318:9 0.256805
43 *318:9 *318:11 1.47835
44 *318:10 *318:9 9
45 *318:10 *318:26 1.29364
46 *318:25 *573:A 9
47 *318:25 *318:26 9
48 *318:7 *318:25 0.256805
*END

*D_NET *319 0.0161402

*CONN
*I *586:Q O *C 51.87 87.57 *L 0 *D NO2I1JIX0
*I *576:A I *C 41.37 85.05 *L 0.00158 *D AN22JIX0
*I *575:A I *C 57.33 100.17 *L 0.00158 *D AN22JIX0
*I *567:A I *C 41.79 50.19 *L 0.00158 *D AN22JIX0
*I *563:A I *C 46.41 100.17 *L 0.00158 *D AN22JIX0
*I *562:A I *C 73.71 100.17 *L 0.00158 *D AN22JIX0
*I *560:A I *C 40.95 57.75 *L 0.00158 *D AN22JIX0

*CAP
1 *586:Q 5.28468e-05
2 *576:A 5.28468e-05
3 *575:A 5.28468e-05
4 *567:A 5.28468e-05
5 *563:A 5.28468e-05
6 *562:A 5.28468e-05
7 *560:A 5.28468e-05
8 *319:12 0.000461839
9 *319:13 0.000424343
10 *319:14 4.57132e-05
11 *319:15 9.22352e-05
12 *319:16 9.97732e-05
13 *319:17 0.000959767
14 *319:18 0.000959767
15 *319:19 0.000325072
16 *319:20 0.000325072
17 *319:21 8.30958e-05
18 *319:22 0.000400824
19 *319:23 4.57132e-05
20 *319:24 7.55578e-05
21 *319:25 0.00106009
22 *319:26 0.000673453
23 *319:27 0.000732511
24 *319:28 0.0004406
25 *319:29 0.000478096
26 *319:30 4.57132e-05
27 *319:31 0.000621318
28 *319:32 6.47361e-05
29 *319:33 0.000168036
30 *319:34 0.000732511
31 *319:35 0.000154982
32 *319:36 0.000382156
33 *319:37 0.000382156
34 *319:38 0.000201293
35 *319:39 0.000171125
36 *319:40 0.000160417
37 *319:41 0.000153089
38 *319:42 0.000941003
39 *319:43 4.57132e-05
40 *319:44 0.000674973
41 *319:45 0.000363457
42 *319:46 0.000917661
43 *319:47 0.000475589
44 *319:48 0.000917661
45 *319:49 4.57132e-05
46 *319:50 0.000467436

*RES
1 *319:28 *567:A 9
2 *319:28 *319:29 1.66319
3 *319:12 *319:29 0.369553
4 *319:13 *560:A 9
5 *319:12 *319:13 1.66319
6 *319:14 *319:13 9
7 *319:11 *319:14 0.256805
8 *319:15 *319:14 9
9 *319:15 *319:16 0.554398
10 *319:16 *319:19 0.184845
11 *319:19 *319:20 2.21759
12 *319:17 *319:20 0.184845
13 *319:17 *319:18 6.83762
14 *319:18 *319:21 0.184845
15 *319:21 *319:24 0.554398
16 *319:23 *319:24 9
17 *319:10 *319:23 0.256805
18 *319:22 *319:23 9
19 *319:25 *576:A 9
20 *319:22 *319:25 1.47835
21 *319:25 *319:26 2.03275
22 *319:27 *319:26 9
23 *319:27 *319:34 4.80473
24 *319:32 *586:Q 9
25 *319:33 *319:34 9
26 *319:32 *319:33 0.184845
27 *319:33 *319:35 0.92395
28 *319:35 *319:38 0.369553
29 *319:38 *319:39 1.1088
30 *319:36 *319:39 0.184845
31 *319:36 *319:37 2.03275
32 *319:30 *563:A 9
33 *319:9 *319:30 0.256805
34 *319:37 *319:40 0.184845
35 *319:31 *319:30 9
36 *319:40 *319:41 0.554398
37 *319:43 *575:A 9
38 *319:8 *319:43 0.256805
39 *319:31 *319:42 2.95683
40 *319:42 *319:41 9
41 *319:44 *319:43 9
42 *319:42 *319:44 1.84804
43 *319:44 *319:45 1.47835
44 *319:45 *319:46 0.184845
45 *319:46 *319:48 3.14154
46 *319:47 *319:48 0.184845
47 *319:47 *319:50 2.58714
48 *319:49 *562:A 9
49 *319:49 *319:50 9
50 *319:7 *319:49 0.256805
*END

*D_NET *320 0.0217916

*CONN
*I *585:Q O *C 55.23 85.47 *L 0 *D NO2I1JIX0
*I *574:A I *C 38.01 57.75 *L 0.00158 *D AN22JIX0
*I *571:A I *C 59.85 100.17 *L 0.00158 *D AN22JIX0
*I *570:A I *C 42.63 77.49 *L 0.00158 *D AN22JIX0
*I *569:A I *C 40.95 47.25 *L 0.00158 *D AN22JIX0
*I *566:A I *C 43.47 100.17 *L 0.00158 *D AN22JIX0
*I *565:A I *C 80.85 103.11 *L 0.00158 *D AN22JIX0

*CAP
1 *585:Q 2.87357e-05
2 *574:A 5.28737e-05
3 *571:A 5.28737e-05
4 *570:A 5.28737e-05
5 *569:A 5.28737e-05
6 *566:A 5.28737e-05
7 *565:A 5.28737e-05
8 *320:7 0.000154933
9 *320:8 0.000174953
10 *320:9 0.000154933
11 *320:10 0.000302683
12 *320:11 0.000295355
13 *320:12 0.000398565
14 *320:13 0.000679504
15 *320:14 0.000686832
16 *320:15 8.93202e-05
17 *320:16 0.000934151
18 *320:17 0.00087371
19 *320:18 0.000297942
20 *320:19 0.000297942
21 *320:20 5.89561e-05
22 *320:21 0.000672416
23 *320:22 0.000156274
24 *320:23 0.000704313
25 *320:24 0.0021514
26 *320:25 9.08049e-05
27 *320:26 0.000687215
28 *320:27 0.000237836
29 *320:28 0.000770932
30 *320:29 0.000160968
31 *320:30 8.45309e-05
32 *320:31 0.000113937
33 *320:32 0.00010661
34 *320:33 0.000164416
35 *320:34 0.000454599
36 *320:35 0.000113602
37 *320:36 0.000454599
38 *320:37 0.000320547
39 *320:38 0.00022251
40 *320:39 0.00022251
41 *320:40 0.00010546
42 *320:41 0.000318967
43 *320:42 0.000207807
44 *320:43 0.00313866
45 *320:44 0.000207807
46 *320:45 0.00100149
47 *320:46 0.000117433
48 *320:47 0.000259292
49 *320:48 0.00028276
50 *320:49 0.000122127
51 *320:50 0.000140901
52 *320:51 0.000130317
53 *320:52 0.000361974
54 *320:53 0.000632713
55 *320:54 0.000361974
56 *320:55 7.08815e-05
57 *320:56 7.08815e-05
58 *320:57 0.000624571

*RES
1 *320:55 *565:A 9
2 *320:55 *320:56 0.369553
3 *320:57 *320:56 9
4 *320:53 *320:57 2.77199
5 *320:53 *320:54 0.184845
6 *320:52 *320:54 2.03275
7 *320:51 *320:52 0.184845
8 *585:Q *320:41 0.288803
9 *320:49 *320:51 0.554398
10 *320:37 *320:41 2.31001
11 *320:50 *320:49 9
12 *320:38 *320:37 9
13 *320:48 *320:50 0.92395
14 *320:38 *320:39 0.739243
15 *320:47 *320:48 1.29364
16 *320:40 *320:39 9
17 *320:44 *571:A 9
18 *320:46 *320:47 0.554398
19 *320:35 *320:40 0.739243
20 *320:42 *320:44 0.739243
21 *320:45 *320:46 9
22 *320:32 *566:A 9
23 *320:35 *320:36 0.184845
24 *320:43 *320:42 9
25 *320:43 *320:45 3.88078
26 *320:31 *320:32 0.369553
27 *320:34 *320:36 2.58714
28 *320:24 *320:43 7.39201
29 *320:25 *320:31 0.184845
30 *320:33 *320:34 0.184845
31 *320:23 *320:24 9
32 *320:23 *320:25 0.369553
33 *320:22 *320:33 0.554398
34 *320:21 *320:23 4.62003
35 *320:21 *320:22 9
36 *320:20 *320:21 0.184845
37 *320:17 *320:20 0.184845
38 *320:16 *570:A 9
39 *320:16 *320:17 4.43518
40 *320:15 *320:16 0.369553
41 *320:15 *320:19 0.184845
42 *320:18 *320:19 1.84804
43 *320:18 *320:30 0.184845
44 *320:13 *569:A 9
45 *320:29 *320:30 0.369553
46 *320:13 *320:14 3.14154
47 *320:28 *320:29 1.1088
48 *320:10 *320:14 0.184845
49 *320:26 *320:28 5.17442
50 *320:10 *320:11 1.29364
51 *320:27 *320:26 9
52 *320:12 *320:11 9
53 *320:12 *320:27 1.29364
54 *320:9 *574:A 9
55 *320:8 *320:12 1.1088
56 *320:7 *320:9 0.554398
57 *320:7 *320:8 9
*END

*D_NET *321 0.0207722

*CONN
*I *584:Q O *C 57.75 85.47 *L 0 *D AND2JIX0
*I *574:C I *C 38.43 57.75 *L 0.00157 *D AN22JIX0
*I *571:C I *C 60.27 100.17 *L 0.00157 *D AN22JIX0
*I *570:C I *C 43.05 77.49 *L 0.00157 *D AN22JIX0
*I *569:C I *C 41.37 47.25 *L 0.00157 *D AN22JIX0
*I *566:C I *C 43.89 100.17 *L 0.00157 *D AN22JIX0
*I *565:C I *C 81.27 103.11 *L 0.00157 *D AN22JIX0

*CAP
1 *584:Q 5.28653e-05
2 *574:C 5.28653e-05
3 *571:C 5.28653e-05
4 *570:C 5.28653e-05
5 *569:C 5.28653e-05
6 *566:C 5.28653e-05
7 *565:C 5.28653e-05
8 *321:10 0.000622078
9 *321:11 0.00019075
10 *321:12 0.000629421
11 *321:13 0.000241793
12 *321:14 0.000114389
13 *321:15 0.000202903
14 *321:16 0.000298354
15 *321:17 0.000269187
16 *321:18 0.000269187
17 *321:19 0.00019075
18 *321:20 0.000282049
19 *321:21 4.47633e-05
20 *321:22 7.9146e-05
21 *321:23 4.47633e-05
22 *321:24 9.09951e-05
23 *321:25 0.00125297
24 *321:26 7.9146e-05
25 *321:27 0.00172344
26 *321:28 0.000162191
27 *321:29 0.00115863
28 *321:30 0.000297494
29 *321:31 4.57254e-05
30 *321:32 0.000688109
31 *321:33 0.000412997
32 *321:34 0.00196417
33 *321:35 0.000129682
34 *321:36 0.000618989
35 *321:37 0.000170344
36 *321:38 0.000618989
37 *321:39 0.000121023
38 *321:40 4.57254e-05
39 *321:41 0.00011287
40 *321:42 0.000107756
41 *321:43 0.00331851
42 *321:44 0.000107756
43 *321:45 0.00137672
44 *321:46 0.00027015
45 *321:47 0.00027015
46 *321:48 0.000523893
47 *321:49 4.25353e-05
48 *321:50 3.53448e-05
49 *321:51 0.000326711
50 *321:52 0.00051574
51 *321:53 0.000333952

*RES
1 *321:17 *569:C 9.00003
2 *321:17 *321:18 1.01641
3 *321:50 *565:C 9.00003
4 *321:19 *321:18 9.00003
5 *321:49 *321:50 0.0923492
6 *321:11 *321:19 1.47843
7 *321:49 *321:53 0.184839
8 *321:10 *321:11 9.00003
9 *321:51 *321:53 1.47843
10 *321:10 *321:12 2.95687
11 *321:15 *574:C 9.00003
12 *321:52 *321:51 9.00003
13 *321:12 *321:13 0.184839
14 *321:13 *321:15 0.831566
15 *321:8 *321:40 0.256745
16 *321:40 *584:Q 9.00003
17 *321:48 *321:52 2.95687
18 *321:14 *321:13 9.00003
19 *321:41 *321:40 9.00003
20 *321:47 *321:48 0.184839
21 *321:23 *570:C 9.00003
22 *321:14 *321:16 0.554377
23 *321:39 *321:41 0.554377
24 *321:44 *571:C 9.00003
25 *321:46 *321:47 1.10875
26 *321:9 *321:21 0.166511
27 *321:21 *321:23 0.0923492
28 *321:16 *321:20 1.29359
29 *321:38 *321:39 0.184839
30 *321:42 *321:44 0.462028
31 *321:45 *321:46 0.184839
32 *321:22 *321:21 9.00003
33 *321:20 *321:24 0.554377
34 *321:36 *321:38 4.25046
35 *321:43 *321:42 9.00003
36 *321:43 *321:45 5.35922
37 *321:22 *321:26 0.369538
38 *321:25 *321:24 9.00003
39 *321:36 *321:37 0.184839
40 *321:34 *321:43 7.20719
41 *321:35 *566:C 9.00003
42 *321:27 *321:26 9.00003
43 *321:25 *321:27 9.23999977
44 *321:28 *321:37 1.29359
45 *321:33 *321:34 9.00003
46 *321:33 *321:35 0.462028
47 *321:27 *321:29 3.32641
48 *321:29 *321:28 9.00003
49 *321:30 *321:33 1.47843
50 *321:29 *321:32 4.80484
51 *321:31 *321:30 9.00003
52 *321:31 *321:32 9.00003
53 *321:7 *321:31 0.256745
*END

*D_NET *322 0.0204963

*CONN
*I *583:Q O *C 54.39 87.57 *L 0 *D AND2JIX0
*I *576:C I *C 41.79 85.05 *L 0.00157 *D AN22JIX0
*I *575:C I *C 57.75 100.17 *L 0.00157 *D AN22JIX0
*I *567:C I *C 42.21 50.19 *L 0.00157 *D AN22JIX0
*I *563:C I *C 46.83 100.17 *L 0.00157 *D AN22JIX0
*I *562:C I *C 74.13 100.17 *L 0.00157 *D AN22JIX0
*I *560:C I *C 41.37 57.75 *L 0.00157 *D AN22JIX0

*CAP
1 *583:Q 2.87355e-05
2 *576:C 5.2828e-05
3 *575:C 5.2828e-05
4 *567:C 5.2828e-05
5 *563:C 5.2828e-05
6 *562:C 5.2828e-05
7 *560:C 5.2828e-05
8 *322:8 0.000183557
9 *322:9 0.000804028
10 *322:10 0.00067949
11 *322:11 0.000397758
12 *322:12 0.000397758
13 *322:13 0.00100368
14 *322:14 0.00126638
15 *322:15 0.00115216
16 *322:16 0.000485667
17 *322:17 0.000882135
18 *322:18 0.000685526
19 *322:19 0.000630015
20 *322:20 0.000667521
21 *322:21 0.000258001
22 *322:22 0.000258001
23 *322:23 4.26648e-05
24 *322:24 3.5339e-05
25 *322:25 9.36871e-05
26 *322:26 0.00222863
27 *322:27 0.000101013
28 *322:28 0.000288181
29 *322:29 0.000493818
30 *322:30 0.000288181
31 *322:31 0.000123042
32 *322:32 0.000139344
33 *322:33 4.57086e-05
34 *322:34 0.000114839
35 *322:35 0.000137745
36 *322:36 0.000184485
37 *322:37 0.00338094
38 *322:38 0.000184485
39 *322:39 0.00023298
40 *322:40 0.00184599
41 *322:41 0.000106378
42 *322:42 0.000224829
43 *322:43 0.000106378

*RES
1 *322:19 *567:C 9
2 *322:19 *322:20 2.67957
3 *322:8 *322:20 0.369553
4 *322:43 *562:C 9
5 *322:9 *560:C 9
6 *322:8 *322:9 0.64682
7 *322:41 *322:43 0.831665
8 *322:9 *322:10 3.60365
9 *322:24 *563:C 9
10 *322:42 *322:41 9
11 *322:10 *322:11 0.184845
12 *322:23 *322:24 0.0924225
13 *322:38 *575:C 9
14 *322:39 *322:42 1.47835
15 *322:11 *322:12 2.40244
16 *322:23 *322:27 0.184845
17 *322:36 *322:38 0.64682
18 *322:39 *322:40 0.184845
19 *322:12 *322:21 0.184845
20 *322:25 *322:27 0.554398
21 *322:37 *322:36 9
22 *322:37 *322:40 5.72882
23 *322:21 *322:22 1.47835
24 *322:26 *322:25 9
25 *322:26 *322:37 4.62003
26 *322:13 *322:22 0.184845
27 *322:18 *322:26 2.40244
28 *322:14 *576:C 9
29 *322:13 *322:14 4.34276
30 *322:17 *322:18 9
31 *322:14 *322:15 1.01637
32 *322:15 *322:17 4.98958
33 *322:16 *322:15 9
34 *322:16 *322:29 2.77199
35 *322:28 *322:29 0.184845
36 *322:28 *322:30 1.66319
37 *322:30 *322:31 0.184845
38 *322:35 *583:Q 0.288803
39 *322:31 *322:34 0.554398
40 *322:32 *322:35 0.866272
41 *322:33 *322:34 9
42 *322:33 *322:32 9
43 *322:7 *322:33 0.256805
*END

*D_NET *323 0.00154134

*CONN
*I *582:Q O *C 38.01 61.53 *L 0 *D AN22JIX0
*I *558:D I *C 34.65 57.75 *L 0.00174 *D NA4JIX0

*CAP
1 *582:Q 5.28507e-05
2 *558:D 5.7411e-05
3 *323:2 0.000137619
4 *323:3 0.000110521
5 *323:4 0.00019776
6 *323:5 0.00019776
7 *323:6 0.00027393
8 *323:7 0.000119779
9 *323:8 0.00027393
10 *323:9 0.000119779

*RES
1 *323:9 *582:Q 9
2 *323:7 *323:9 0.369553
3 *323:8 *323:7 9
4 *323:6 *323:8 0.739243
5 *323:5 *323:6 9
6 *323:4 *323:5 0.739243
7 *323:3 *323:4 9
8 *323:2 *323:3 1.15494
9 *558:D *323:2 0.577469
*END

*D_NET *324 0.00180151

*CONN
*I *581:Q O *C 69.09 99.33 *L 0 *D AN22JIX0
*I *554:D I *C 61.53 100.17 *L 0.00174 *D NA4JIX0

*CAP
1 *581:Q 9.20112e-05
2 *554:D 5.28512e-05
3 *324:3 4.57138e-05
4 *324:4 0.00062701
5 *324:5 0.000114189
6 *324:6 0.00062701
7 *324:7 0.00012854
8 *324:8 0.000114189

*RES
1 *324:7 *581:Q 0.866272
2 *324:8 *324:7 9
3 *324:5 *324:8 0.369553
4 *324:6 *324:5 9
5 *324:4 *324:6 2.40244
6 *324:3 *554:D 9
7 *324:3 *324:4 9
8 *324:2 *324:3 0.256805
*END

*D_NET *325 0.00078884

*CONN
*I *580:Q O *C 35.07 88.83 *L 0 *D AN22JIX0
*I *557:D I *C 36.75 85.05 *L 0.00174 *D NA4JIX0

*CAP
1 *580:Q 5.28491e-05
2 *557:D 0.00011522
3 *325:2 0.000114219
4 *325:3 0.000107031
5 *325:4 0.00014553
6 *325:5 0.000123399
7 *325:6 0.000130589

*RES
1 *325:4 *557:D 0.866272
2 *325:5 *325:4 9
3 *325:5 *325:6 0.554398
4 *325:3 *580:Q 9
5 *325:2 *325:6 0.184845
6 *325:2 *325:3 0.554398
*END

*D_NET *326 0.00017288

*CONN
*I *579:Q O *C 39.27 99.33 *L 0 *D AN22JIX0
*I *555:D I *C 40.11 100.17 *L 0.00174 *D NA4JIX0

*CAP
1 *579:Q 5.769e-05
2 *555:D 2.875e-05
3 *326:2 8.644e-05

*RES
1 *555:D *326:2 0.28875
2 *579:Q *326:2 0.577499986
*END

*D_NET *327 0.0002113

*CONN
*I *578:Q O *C 36.75 51.03 *L 0 *D AN22JIX0
*I *553:D I *C 38.01 50.19 *L 0.00174 *D NA4JIX0

*CAP
1 *578:Q 7.68995e-05
2 *553:D 2.87505e-05
3 *327:2 0.00010565

*RES
1 *553:D *327:2 0.288746
2 *578:Q *327:2 0.866249979
*END

*D_NET *328 0.000729

*CONN
*I *577:Q O *C 76.23 96.39 *L 0 *D AN22JIX0
*I *556:D I *C 76.23 100.17 *L 0.00174 *D NA4JIX0

*CAP
1 *577:Q 5.154e-05
2 *556:D 5.7409e-05
3 *328:2 0.00011231
4 *328:3 8.18495e-05
5 *328:4 0.00017034
6 *328:5 8.52103e-05
7 *328:6 0.00017034

*RES
1 *328:2 *556:D 0.577469
2 *328:2 *328:5 0.577469
3 *328:6 *328:5 9
4 *328:4 *328:6 1.1088
5 *328:3 *328:4 9
6 *577:Q *328:3 0.577469
*END

*D_NET *329 0.00061738

*CONN
*I *576:Q O *C 42.21 84.21 *L 0 *D AN22JIX0
*I *557:B I *C 38.01 85.05 *L 0.00165 *D NA4JIX0

*CAP
1 *576:Q 0.000118961
2 *557:B 5.74994e-05
3 *329:2 0.00016098
4 *329:3 0.000147711
5 *329:4 0.00013223

*RES
1 *329:3 *576:Q 1.44375002
2 *329:3 *329:4 0.288746
3 *329:2 *329:4 0.866259
4 *557:B *329:2 0.577491
*END

*D_NET *330 0.0010932

*CONN
*I *575:Q O *C 58.17 99.33 *L 0 *D AN22JIX0
*I *554:B I *C 62.79 100.17 *L 0.00165 *D NA4JIX0

*CAP
1 *575:Q 8.43792e-05
2 *554:B 5.2849e-05
3 *330:2 0.00011313
4 *330:3 0.000185738
5 *330:4 0.000187301
6 *330:5 0.00014357
7 *330:6 0.000114191
8 *330:7 0.00021204

*RES
1 *330:6 *554:B 9
2 *330:6 *330:7 0.369553
3 *330:5 *330:7 0.739243
4 *330:4 *330:5 9
5 *330:3 *330:4 1.15494
6 *330:2 *330:3 0.288803
7 *575:Q *330:2 0.866272
*END

*D_NET *331 0.00055544

*CONN
*I *574:Q O *C 38.85 58.59 *L 0 *D AN22JIX0
*I *558:A I *C 36.33 57.75 *L 0.00157 *D NA4JIX0

*CAP
1 *574:Q 5.03703e-05
2 *558:A 5.28507e-05
3 *331:2 0.00010028
4 *331:3 8.70899e-05
5 *331:4 8.70899e-05
6 *331:5 9.86794e-05
7 *331:6 7.90794e-05

*RES
1 *331:4 *558:A 9
2 *331:6 *574:Q 0.577469
3 *331:3 *331:4 0.369553
4 *331:5 *331:6 0.288803
5 *331:2 *331:3 9
6 *331:2 *331:5 0.577469
*END

*D_NET *332 0.00106654

*CONN
*I *573:Q O *C 33.81 51.03 *L 0 *D AN22JIX0
*I *553:C I *C 38.85 50.19 *L 0.0017 *D NA4JIX0

*CAP
1 *573:Q 5.71903e-05
2 *553:C 5.74969e-05
3 *332:2 0.00041858
4 *332:3 0.000172018
5 *332:4 0.000361249

*RES
1 *332:4 *553:C 0.577491
2 *332:2 *332:4 2.88750005
3 *332:2 *332:3 1.15498
4 *573:Q *332:3 0.577491
*END

*D_NET *333 0.00194762

*CONN
*I *572:Q O *C 31.29 81.27 *L 0 *D AN22JIX0
*I *557:C I *C 37.59 85.05 *L 0.0017 *D NA4JIX0

*CAP
1 *572:Q 5.2847e-05
2 *557:C 2.8708e-05
3 *333:2 0.000234959
4 *333:3 0.000319472
5 *333:4 0.000234959
6 *333:5 0.0004327
7 *333:6 0.000379397
8 *333:7 0.000264572

*RES
1 *557:C *333:7 0.288803
2 *333:6 *333:7 2.02121
3 *333:5 *333:6 1.44374
4 *333:3 *333:5 2.31001
5 *333:4 *333:3 9
6 *333:2 *333:4 0.92395
7 *572:Q *333:2 9
*END

*D_NET *334 0.00072444

*CONN
*I *571:Q O *C 60.69 99.33 *L 0 *D AN22JIX0
*I *554:A I *C 63.21 100.17 *L 0.00157 *D NA4JIX0

*CAP
1 *571:Q 5.06713e-05
2 *554:A 5.28492e-05
3 *334:2 7.94205e-05
4 *334:3 0.00016856
5 *334:4 0.00010141
6 *334:5 0.00017012
7 *334:6 0.00010141

*RES
1 *334:4 *554:A 9
2 *334:4 *334:6 0.369553
3 *334:5 *334:6 9
4 *334:3 *334:5 1.15494
5 *334:2 *334:3 0.288803
6 *571:Q *334:2 0.577469
*END

*D_NET *335 0.00197798

*CONN
*I *570:Q O *C 43.47 76.65 *L 0 *D AN22JIX0
*I *557:A I *C 38.43 85.05 *L 0.00157 *D NA4JIX0

*CAP
1 *570:Q 5.28493e-05
2 *557:A 5.28493e-05
3 *335:2 0.00040742
4 *335:3 0.000130218
5 *335:4 0.000130218
6 *335:5 0.000398499
7 *335:6 0.00040742
8 *335:7 0.000398499

*RES
1 *335:5 *570:Q 9
2 *335:4 *557:A 9
3 *335:5 *335:7 2.40244
4 *335:3 *335:4 0.739243
5 *335:6 *335:7 9
6 *335:2 *335:3 9
7 *335:2 *335:6 3.46495
*END

*D_NET *336 0.00075742

*CONN
*I *569:Q O *C 41.79 46.41 *L 0 *D AN22JIX0
*I *553:A I *C 39.69 50.19 *L 0.00157 *D NA4JIX0

*CAP
1 *569:Q 2.64488e-05
2 *553:A 5.285e-05
3 *336:2 0.00011698
4 *336:3 0.00019526
5 *336:4 0.00019526
6 *336:5 5.52008e-05
7 *336:6 0.000115419

*RES
1 *336:4 *553:A 9
2 *336:5 *569:Q 0.288803
3 *336:3 *336:4 0.92395
4 *336:5 *336:6 0.288803
5 *336:2 *336:3 9
6 *336:2 *336:6 0.577469
*END

*D_NET *337 0.00221864

*CONN
*I *568:Q O *C 30.87 51.03 *L 0 *D AN22JIX0
*I *558:C I *C 35.49 57.75 *L 0.0017 *D NA4JIX0

*CAP
1 *568:Q 5.67779e-05
2 *558:C 5.28461e-05
3 *337:2 0.000114194
4 *337:3 0.000387059
5 *337:4 0.000359965
6 *337:5 0.0006239
7 *337:6 0.0006239

*RES
1 *337:6 *558:C 9
2 *337:5 *337:6 2.58714
3 *337:4 *337:5 9
4 *337:3 *337:4 2.59882
5 *337:2 *337:3 0.577469
6 *568:Q *337:2 0.577469
*END

*D_NET *338 0.0005377

*CONN
*I *567:Q O *C 42.63 51.03 *L 0 *D AN22JIX0
*I *553:B I *C 39.27 50.19 *L 0.00165 *D NA4JIX0

*CAP
1 *567:Q 7.61808e-05
2 *553:B 5.74989e-05
3 *338:2 0.00016392
4 *338:3 0.000135171
5 *338:4 0.00010493

*RES
1 *338:4 *567:Q 0.866249979
2 *338:3 *338:4 0.288746
3 *338:2 *553:B 0.577504
4 *338:2 *338:3 0.866249979
*END

*D_NET *339 0.00054054

*CONN
*I *566:Q O *C 44.31 99.33 *L 0 *D AN22JIX0
*I *555:A I *C 41.79 100.17 *L 0.00157 *D NA4JIX0

*CAP
1 *566:Q 5.58207e-05
2 *555:A 5.28494e-05
3 *339:2 7.51307e-05
4 *339:3 9.93e-05
5 *339:4 7.51307e-05
6 *339:5 8.45705e-05
7 *339:6 9.77393e-05

*RES
1 *339:5 *566:Q 0.577469
2 *339:5 *339:6 0.288803
3 *339:3 *339:6 0.577469
4 *339:4 *339:3 9
5 *339:2 *339:4 0.369553
6 *555:A *339:2 9
*END

*D_NET *340 0.00102892

*CONN
*I *565:Q O *C 81.69 103.95 *L 0 *D AN22JIX0
*I *556:A I *C 77.91 100.17 *L 0.00157 *D NA4JIX0

*CAP
1 *565:Q 2.37586e-05
2 *556:A 5.28519e-05
3 *340:2 0.000206312
4 *340:3 0.00033391
5 *340:4 0.000177652
6 *340:5 6.67616e-05
7 *340:6 5.00496e-05
8 *340:7 6.51617e-05
9 *340:8 5.24698e-05

*RES
1 *340:8 *565:Q 0.288803
2 *340:7 *340:8 0.288803
3 *340:5 *340:7 0.288803
4 *340:6 *340:5 9
5 *340:4 *340:6 0.184845
6 *340:3 *340:4 0.92395
7 *340:2 *340:3 0.739243
8 *556:A *340:2 9
*END

*D_NET *341 0.00099328

*CONN
*I *564:Q O *C 72.03 99.33 *L 0 *D AN22JIX0
*I *556:C I *C 77.07 100.17 *L 0.0017 *D NA4JIX0

*CAP
1 *564:Q 8.45625e-05
2 *556:C 5.74103e-05
3 *341:2 0.000113311
4 *341:3 0.000354669
5 *341:4 0.00038333

*RES
1 *556:C *341:4 0.577518
2 *341:3 *341:4 2.59875011
3 *341:2 *341:3 0.288759
4 *564:Q *341:2 0.866237
*END

*D_NET *342 0.00098897

*CONN
*I *563:Q O *C 47.25 99.33 *L 0 *D AN22JIX0
*I *555:B I *C 41.37 100.17 *L 0.00165 *D NA4JIX0

*CAP
1 *563:Q 8.51097e-05
2 *555:B 5.28504e-05
3 *342:4 4.57102e-05
4 *342:5 0.0002802
5 *342:6 6.47408e-05
6 *342:7 0.0002802
7 *342:8 0.000115419
8 *342:9 6.47408e-05

*RES
1 *342:4 *555:B 9
2 *342:3 *342:4 0.256805
3 *342:5 *342:4 9
4 *342:8 *563:Q 0.866272
5 *342:5 *342:7 1.66319
6 *342:9 *342:8 9
7 *342:6 *342:7 9
8 *342:6 *342:9 0.184845
9 *342:2 *342:6 0.0811615
*END

*D_NET *343 0.00139395

*CONN
*I *562:Q O *C 74.55 99.33 *L 0 *D AN22JIX0
*I *556:B I *C 77.49 100.17 *L 0.00165 *D NA4JIX0

*CAP
1 *562:Q 5.28518e-05
2 *556:B 5.74103e-05
3 *343:4 5.05622e-05
4 *343:5 5.05622e-05
5 *343:6 0.00044924
6 *343:7 0.00013274
7 *343:8 0.000105642
8 *343:9 4.57089e-05
9 *343:10 0.00044924

*RES
1 *343:3 *343:4 0.0811615
2 *343:4 *562:Q 9
3 *343:4 *343:5 0.184845
4 *556:B *343:7 0.577469
5 *343:6 *343:5 9
6 *343:7 *343:8 0.577469
7 *343:6 *343:10 1.66319
8 *343:9 *343:8 9
9 *343:9 *343:10 9
10 *343:2 *343:9 0.256805
*END

*D_NET *344 0.00121282

*CONN
*I *561:Q O *C 38.01 96.39 *L 0 *D AN22JIX0
*I *555:C I *C 40.95 100.17 *L 0.0017 *D NA4JIX0

*CAP
1 *561:Q 5.2849e-05
2 *555:C 8.39304e-05
3 *344:2 0.000200438
4 *344:3 0.0002249
5 *344:4 0.000200438
6 *344:5 0.0002249
7 *344:6 8.46991e-05
8 *344:7 0.000140661

*RES
1 *344:7 *555:C 9
2 *344:6 *344:7 0.554398
3 *344:5 *344:6 9
4 *344:3 *344:5 2.02121
5 *344:4 *344:3 9
6 *344:2 *344:4 0.92395
7 *561:Q *344:2 9
*END

*D_NET *345 0.0014267

*CONN
*I *560:Q O *C 41.79 58.59 *L 0 *D AN22JIX0
*I *558:B I *C 35.91 57.75 *L 0.00165 *D NA4JIX0

*CAP
1 *560:Q 0.000140093
2 *558:B 5.28472e-05
3 *345:2 0.000137851
4 *345:3 0.000366637
5 *345:4 0.000137851
6 *345:5 0.000197591
7 *345:6 0.00039383

*RES
1 *345:5 *560:Q 1.44374
2 *345:5 *345:6 0.577469
3 *345:3 *345:6 2.59882
4 *345:4 *345:3 9
5 *345:2 *345:4 0.739243
6 *558:B *345:2 9
*END

*D_NET *346 0.00211557

*CONN
*I *559:Q O *C 55.65 99.33 *L 0 *D AN22JIX0
*I *554:C I *C 62.37 100.17 *L 0.0017 *D NA4JIX0

*CAP
1 *559:Q 5.285e-05
2 *554:C 8.39262e-05
3 *346:3 4.57139e-05
4 *346:4 0.0008874
5 *346:5 5.11574e-05
6 *346:6 0.0008874
7 *346:7 0.000107122

*RES
1 *346:7 *554:C 9
2 *346:5 *346:7 0.184845
3 *346:6 *346:5 9
4 *346:4 *346:6 2.95683
5 *346:3 *346:4 9
6 *346:3 *559:Q 9
7 *346:2 *346:3 0.256805
*END

*D_NET *347 0.00874812

*CONN
*I *548:A I *C 111.93 95.55 *L 0.00156 *D BUJIX1
*I *680:RN I *C 111.93 39.69 *L 0.0037 *D SDFRRQJIX1
*I *679:RN I *C 110.67 57.75 *L 0.0037 *D SDFRRQJIX1
*I *678:RN I *C 110.25 62.37 *L 0.0036 *D SDFRRSJIX1
*I *677:RN I *C 110.25 87.99 *L 0.0036 *D SDFRRSJIX1
*I *675:RN I *C 111.09 42.63 *L 0.0037 *D SDFRRQJIX1
*I *674:RN I *C 111.09 47.25 *L 0.0037 *D SDFRRQJIX1
*I *673:RN I *C 111.09 77.49 *L 0.0036 *D SDFRRSJIX1
*I *672:RN I *C 110.25 80.43 *L 0.0036 *D SDFRRSJIX1
*I *552:Q O *C 110.25 85.47 *L 0 *D INVJIX1

*CAP
1 *548:A 5.28475e-05
2 *680:RN 5.28475e-05
3 *679:RN 5.28475e-05
4 *678:RN 5.28475e-05
5 *677:RN 5.28475e-05
6 *675:RN 5.28475e-05
7 *674:RN 5.28475e-05
8 *673:RN 5.28475e-05
9 *672:RN 5.28475e-05
10 *552:Q 5.28475e-05
11 *347:10 0.000176667
12 *347:11 0.000337228
13 *347:12 0.000503571
14 *347:13 0.000168901
15 *347:14 0.000335783
16 *347:15 0.000215875
17 *347:16 0.000504167
18 *347:17 0.000715442
19 *347:18 0.00042715
20 *347:19 0.000166721
21 *347:20 0.000423353
22 *347:21 0.000285275
23 *347:22 0.000110237
24 *347:23 0.000356006
25 *347:24 0.00075176
26 *347:25 0.000475822
27 *347:26 0.000659005
28 *347:27 0.000683392
29 *347:28 5.31342e-05
30 *347:29 0.000180108
31 *347:30 0.000217596
32 *347:31 0.000168901
33 *347:32 0.000151763
34 *347:33 0.000151763

*RES
1 *347:29 *680:RN 9
2 *347:29 *347:30 0.92395
3 *347:22 *347:30 0.369553
4 *347:23 *675:RN 9
5 *347:22 *347:23 0.369553
6 *347:24 *674:RN 9
7 *347:23 *347:24 2.03275
8 *347:24 *347:25 3.14154
9 *347:15 *347:25 0.184845
10 *347:16 *679:RN 9
11 *347:15 *347:16 1.47835
12 *347:17 *678:RN 9
13 *347:16 *347:17 2.03275
14 *347:17 *347:18 2.77199
15 *347:33 *548:A 9
16 *347:18 *347:26 0.184845
17 *347:32 *347:33 0.92395
18 *347:27 *673:RN 9
19 *347:26 *347:27 3.88078
20 *347:31 *347:32 9
21 *347:27 *347:28 0.184845
22 *347:13 *347:31 1.15494
23 *347:19 *347:28 0.184845
24 *347:14 *347:13 9
25 *347:20 *672:RN 9
26 *347:19 *347:20 1.1088
27 *347:12 *677:RN 9
28 *347:12 *347:14 2.40244
29 *347:20 *347:21 1.1088
30 *347:11 *347:12 1.1088
31 *347:11 *552:Q 9
32 *347:10 *347:21 0.184845
33 *347:10 *347:11 1.1088
*END

*D_NET *354 0.00168589

*CONN
*I *596:Q O *C 61.53 88.83 *L 0 *D NA2I1JIX0
*I *593:B I *C 60.27 85.05 *L 0.00166 *D NO2JIX0
*I *589:B I *C 63.63 87.99 *L 0.00166 *D NO2I1JIX0
*I *550:AN I *C 61.95 85.05 *L 0.00164 *D NA3I1JIX0

*CAP
1 *596:Q 5.285e-05
2 *593:B 5.75015e-05
3 *589:B 5.285e-05
4 *550:AN 6.12993e-05
5 *354:4 0.000158619
6 *354:5 0.000158619
7 *354:6 8.22705e-05
8 *354:7 0.000162721
9 *354:8 0.00032156
10 *354:9 8.38504e-05
11 *354:10 0.0002958
12 *354:11 0.000197951

*RES
1 *354:11 *589:B 9
2 *354:10 *354:11 0.739243
3 *354:9 *596:Q 9
4 *354:8 *354:10 0.739243
5 *354:8 *354:9 0.369553
6 *354:7 *354:8 0.92395
7 *550:AN *354:7 9
8 *354:6 *550:AN 0.288803
9 *354:5 *354:6 0.577469
10 *354:4 *593:B 0.577469
11 *354:4 *354:5 0.866272
*END

*D_NET *355 0.0007743

*CONN
*I *682:A I *C 51.03 85.05 *L 0.00167 *D ON21JIX0
*I *591:Q O *C 48.09 84.21 *L 0 *D INVJIX0

*CAP
1 *682:A 2.71418e-05
2 *591:Q 5.15392e-05
3 *355:2 0.000250969
4 *355:3 8.02901e-05
5 *355:4 0.00027972
6 *355:5 8.46395e-05

*RES
1 *682:A *355:5 0.288759
2 *355:4 *355:5 0.577491
3 *355:2 *355:4 1.73249996
4 *355:2 *355:3 0.288759
5 *591:Q *355:3 0.577491
*END

*D_NET *356 0.0007061

*CONN
*I *683:A I *C 62.37 80.43 *L 0.00167 *D ON21JIX0
*I *597:Q O *C 59.01 81.27 *L 0 *D NA3I1JIX0
*I *590:A I *C 60.27 80.43 *L 0.00164 *D INVJIX0

*CAP
1 *683:A 7.13196e-05
2 *597:Q 2.87486e-05
3 *590:A 5.75001e-05
4 *356:3 9.77415e-05
5 *356:4 0.00019548
6 *356:5 0.00012649
7 *356:6 0.00012882

*RES
1 *356:6 *683:A 0.866249979
2 *356:5 *356:6 0.577504
3 *356:4 *356:5 0.577504
4 *356:4 *590:A 0.577504
5 *356:3 *356:4 0.577504
6 *356:3 *597:Q 0.288746
*END

*D_NET *357 0.00466934

*CONN
*I *885:B I *C 80.01 32.13 *L 0.0017 *D AND2JIX0
*I *881:A I *C 81.27 32.13 *L 0.00163 *D OR2JIX0
*I *873:B I *C 77.91 35.07 *L 0.00334 *D EO2JIX0
*I *773:Q O *C 62.79 35.91 *L 0 *D NA2JIX1

*CAP
1 *885:B 5.28433e-05
2 *881:A 5.74028e-05
3 *873:B 5.28433e-05
4 *773:Q 5.28433e-05
5 *357:4 0.000172442
6 *357:5 0.00127695
7 *357:6 0.000172442
8 *357:7 0.00016761
9 *357:8 0.000330505
10 *357:9 0.00127695
11 *357:10 0.00018462
12 *357:11 0.000177918
13 *357:12 5.25511e-05
14 *357:13 6.00723e-05
15 *357:14 7.81933e-05
16 *357:15 0.00026143
17 *357:16 7.81933e-05
18 *357:17 0.000163479

*RES
1 *357:14 *885:B 8.99995
2 *357:14 *357:16 0.369639
3 *881:A *357:17 0.577513
4 *357:15 *357:16 8.99995
5 *357:15 *357:17 0.866193
6 *357:11 *357:15 1.15503
7 *357:12 *357:11 8.99995
8 *357:12 *357:13 0.184743
9 *357:7 *357:13 0.184743
10 *357:8 *873:B 8.99995
11 *357:7 *357:8 0.924021
12 *357:8 *357:10 1.10876
13 *357:9 *357:10 8.99995
14 *357:5 *357:9 10.1062498
15 *357:6 *357:5 8.99995
16 *357:4 *357:6 0.924021
17 *773:Q *357:4 8.99995
*END

*D_NET *358 0.00196327

*CONN
*I *888:A I *C 69.09 35.07 *L 0.00164 *D INVJIX0
*I *884:B I *C 73.29 35.07 *L 0.00171 *D NA2JIX0
*I *874:B I *C 72.03 39.69 *L 0.00629 *D EO2JIX1
*I *774:Q O *C 67.41 34.65 *L 0 *D EO2JIX1

*CAP
1 *888:A 2.7662e-05
2 *884:B 8.39286e-05
3 *874:B 5.28501e-05
4 *774:Q 3.61115e-05
5 *358:4 8.5069e-05
6 *358:5 0.000194398
7 *358:6 0.00013119
8 *358:7 0.000112901
9 *358:8 0.000211589
10 *358:9 0.00030605
11 *358:10 0.000116199
12 *358:11 0.000296488
13 *358:12 0.00030883

*RES
1 *358:11 *884:B 9
2 *358:11 *358:12 0.92395
3 *358:10 *874:B 9
4 *358:9 *358:12 0.554398
5 *358:9 *358:10 0.739243
6 *358:8 *358:9 0.739243
7 *358:7 *358:8 0.554398
8 *358:4 *888:A 0.288803
9 *358:6 *358:7 9
10 *358:4 *358:5 0.577469
11 *358:5 *358:6 1.15494
12 *774:Q *358:5 0.288803
*END

*D_NET *359 0.00129016

*CONN
*I *889:A I *C 68.67 39.69 *L 0.00164 *D INVJIX0
*I *882:B I *C 66.57 42.63 *L 0.00171 *D NA2JIX0
*I *875:B I *C 68.67 42.63 *L 0.00629 *D EO2JIX1
*I *777:Q O *C 64.05 42.21 *L 0 *D EO2JIX1

*CAP
1 *889:A 5.28517e-05
2 *882:B 0.000103118
3 *875:B 7.86311e-05
4 *777:Q 0.00031973
5 *359:4 8.32806e-05
6 *359:5 0.000274109
7 *359:6 0.000189218
8 *359:7 0.000189218

*RES
1 *359:6 *889:A 9
2 *359:6 *359:7 1.29364
3 *875:B *359:7 9
4 *359:4 *875:B 0.288803
5 *359:4 *359:5 0.577469
6 *777:Q *359:5 2.31001
7 *777:Q *882:B 1.15494
*END

*D_NET *360 0.00311082

*CONN
*I *891:A I *C 67.41 57.75 *L 0.00164 *D INVJIX0
*I *883:B I *C 68.67 57.75 *L 0.00171 *D NA2JIX0
*I *876:B I *C 66.57 62.37 *L 0.00629 *D EO2JIX1
*I *780:Q O *C 68.67 47.67 *L 0 *D EO2JIX1

*CAP
1 *891:A 8.78056e-05
2 *883:B 2.57882e-05
3 *876:B 5.75073e-05
4 *780:Q 5.28981e-05
5 *360:4 0.000110389
6 *360:5 6.47927e-05
7 *360:6 0.000856579
8 *360:7 0.00108266
9 *360:8 0.000110389
10 *360:9 8.31964e-05
11 *360:10 0.000240272
12 *360:11 8.16435e-05
13 *360:12 6.32398e-05
14 *360:13 8.3279e-05
15 *360:14 0.000110389

*RES
1 *360:13 *883:B 0.288803
2 *360:11 *780:Q 0.577469
3 *360:13 *360:14 0.577469
4 *360:11 *360:12 0.288803
5 *360:8 *360:14 0.577469
6 *360:5 *360:12 0.288803
7 *891:A *360:8 0.577469
8 *360:6 *360:5 9
9 *360:7 *891:A 9
10 *360:6 *360:7 4.43518
11 *360:7 *360:10 1.29364
12 *360:9 *360:10 9
13 *360:4 *876:B 0.577469
14 *360:4 *360:9 0.577469
*END

*D_NET *361 0.00195282

*CONN
*I *892:AN I *C 73.71 69.51 *L 0.00163 *D NA2I1JIX1
*I *886:A I *C 69.09 69.93 *L 0.00323 *D INVJIX1
*I *877:B I *C 77.49 69.93 *L 0.00629 *D EO2JIX1
*I *783:Q O *C 69.93 72.45 *L 0 *D EO2JIX1

*CAP
1 *892:AN 5.28466e-05
2 *886:A 5.28466e-05
3 *877:B 5.28466e-05
4 *783:Q 5.28466e-05
5 *361:6 4.5899e-05
6 *361:7 0.000298483
7 *361:8 0.000102559
8 *361:9 0.00010834
9 *361:10 0.000137688
10 *361:11 0.0001002
11 *361:12 4.57075e-05
12 *361:13 0.00057056
13 *361:14 4.57075e-05
14 *361:15 0.000286268

*RES
1 *361:11 *783:Q 9
2 *361:10 *361:11 0.554398
3 *361:9 *361:10 0.369553
4 *361:8 *886:A 9
5 *361:8 *361:9 0.554398
6 *361:6 *361:8 0.184845
7 *361:12 *892:AN 9
8 *361:5 *361:12 0.256805
9 *361:7 *361:6 9
10 *361:13 *361:12 9
11 *361:7 *361:13 2.03275
12 *361:13 *361:15 1.66319
13 *361:14 *877:B 9
14 *361:14 *361:15 9
15 *361:4 *361:14 0.256805
*END

*D_NET *362 0.00072246

*CONN
*I *872:A I *C 80.43 73.29 *L 0.00478 *D HAJIX1
*I *786:Q O *C 75.39 72.45 *L 0 *D NO2I1JIX1

*CAP
1 *872:A 5.28506e-05
2 *786:Q 5.28506e-05
3 *362:4 4.57082e-05
4 *362:5 0.00026267
5 *362:6 4.57082e-05
6 *362:7 0.00026267

*RES
1 *362:3 *362:4 0.256805
2 *362:4 *786:Q 9
3 *362:5 *362:4 9
4 *362:5 *362:7 2.03275
5 *362:6 *872:A 9
6 *362:6 *362:7 9
7 *362:2 *362:6 0.256805
*END

*D_NET *363 0.00132128

*CONN
*I *885:A I *C 79.17 32.13 *L 0.00153 *D AND2JIX0
*I *881:B I *C 82.11 32.13 *L 0.00163 *D OR2JIX0
*I *873:A I *C 79.59 35.49 *L 0.00301 *D EO2JIX0
*I *803:Q O *C 77.91 31.29 *L 0 *D NA2JIX1

*CAP
1 *885:A 8.77204e-05
2 *881:B 5.7408e-05
3 *873:A 5.28518e-05
4 *803:Q 2.87086e-05
5 *363:4 8.36107e-05
6 *363:5 0.00029859
7 *363:6 0.000234352
8 *363:7 0.000234352
9 *363:8 0.000243688

*RES
1 *363:7 *873:A 9
2 *363:6 *363:7 1.47835
3 *363:8 *881:B 0.577469
4 *885:A *363:6 9
5 *363:5 *363:8 2.02121
6 *363:5 *885:A 0.577469
7 *363:4 *363:5 0.577469
8 *363:4 *803:Q 0.288803
*END

*D_NET *364 0.00223903

*CONN
*I *890:A I *C 72.03 35.07 *L 0.00164 *D INVJIX0
*I *884:A I *C 73.71 35.07 *L 0.0016 *D NA2JIX0
*I *874:A I *C 73.272 39.48 *L 0.00577 *D EO2JIX1
*I *804:Q O *C 70.77 32.55 *L 0 *D EO2JIX1

*CAP
1 *890:A 2.76573e-05
2 *884:A 5.28507e-05
3 *874:A 8.39338e-05
4 *804:Q 5.28507e-05
5 *364:4 0.000136902
6 *364:5 0.000315861
7 *364:6 6.41921e-05
8 *364:7 7.27489e-05
9 *364:8 0.000103816
10 *364:9 0.000152459
11 *364:10 0.000239482
12 *364:11 0.00051259
13 *364:12 0.000423689

*RES
1 *364:9 *874:A 9
2 *364:8 *364:9 0.554398
3 *364:8 *364:12 0.184845
4 *364:11 *884:A 9
5 *364:11 *364:12 1.29364
6 *364:6 *890:A 0.288803
7 *364:10 *364:11 0.369553
8 *364:7 *364:6 9
9 *364:5 *364:10 0.92395
10 *364:5 *364:7 0.369553
11 *364:4 *364:5 0.739243
12 *804:Q *364:4 9
*END

*D_NET *365 0.00315356

*CONN
*I *882:A I *C 66.99 42.63 *L 0.0016 *D NA2JIX0
*I *878:AN I *C 69.51 39.27 *L 0.00163 *D NA2I1JIX1
*I *875:A I *C 69.912 42.84 *L 0.00577 *D EO2JIX1
*I *807:Q O *C 60.69 34.65 *L 0 *D EO2JIX1

*CAP
1 *882:A 5.28493e-05
2 *878:AN 5.28493e-05
3 *875:A 5.28493e-05
4 *807:Q 5.28883e-05
5 *365:4 8.1599e-05
6 *365:5 0.000415824
7 *365:6 0.0006389
8 *365:7 0.000389989
9 *365:8 0.000389989
10 *365:9 0.000274327
11 *365:10 0.000138484
12 *365:11 0.000261127
13 *365:12 0.000144158
14 *365:13 0.000107522
15 *365:14 0.0001002

*RES
1 *365:14 *875:A 9
2 *365:13 *365:14 0.554398
3 *365:12 *365:13 0.184845
4 *365:11 *878:AN 9
5 *365:11 *365:12 0.92395
6 *365:8 *882:A 9
7 *365:10 *365:11 1.1088
8 *365:7 *365:8 2.58714
9 *365:9 *365:10 9
10 *365:6 *365:7 9
11 *365:6 *365:9 1.73254
12 *365:5 *365:6 3.17628
13 *365:4 *365:5 0.288803
14 *807:Q *365:4 0.577469
*END

*D_NET *366 0.00209079

*CONN
*I *883:A I *C 69.09 57.75 *L 0.0016 *D NA2JIX0
*I *880:AN I *C 69.93 58.17 *L 0.00163 *D NA2I1JIX1
*I *876:A I *C 67.812 62.16 *L 0.00577 *D EO2JIX1
*I *810:Q O *C 69.93 64.89 *L 0 *D EO2JIX1

*CAP
1 *883:A 5.28528e-05
2 *880:AN 5.28528e-05
3 *876:A 5.28528e-05
4 *810:Q 5.48986e-05
5 *366:4 0.000341162
6 *366:5 0.00041898
7 *366:6 0.000133791
8 *366:7 0.000159677
9 *366:8 0.000119278
10 *366:9 0.000247303
11 *366:10 0.000132231
12 *366:11 8.3649e-05
13 *366:12 0.000101889
14 *366:13 0.000139379

*RES
1 *366:11 *810:Q 0.577469
2 *366:10 *366:11 0.288803
3 *366:12 *880:AN 9
4 *366:6 *366:10 0.866272
5 *366:8 *883:A 9
6 *366:12 *366:13 0.554398
7 *366:7 *366:6 9
8 *366:8 *366:9 0.739243
9 *366:9 *366:13 0.369553
10 *366:5 *876:A 9
11 *366:5 *366:7 0.92395
12 *366:4 *366:9 0.554398
13 *366:4 *366:5 1.29364
*END

*D_NET *367 0.00263688

*CONN
*I *893:B I *C 71.19 69.93 *L 0.00344 *D NA2I1JIX1
*I *887:A I *C 72.87 69.93 *L 0.00323 *D INVJIX1
*I *877:A I *C 78.732 69.72 *L 0.00577 *D EO2JIX1
*I *813:Q O *C 79.59 64.89 *L 0 *D EO2JIX1

*CAP
1 *893:B 5.28475e-05
2 *887:A 2.57802e-05
3 *877:A 5.28475e-05
4 *813:Q 2.74621e-05
5 *367:5 4.7802e-05
6 *367:6 7.95121e-05
7 *367:7 0.00051746
8 *367:8 0.000133789
9 *367:9 4.58991e-05
10 *367:10 8.32784e-05
11 *367:11 0.000160982
12 *367:12 0.000283883
13 *367:13 0.000312892
14 *367:14 5.05182e-05
15 *367:15 0.00051746
16 *367:16 5.77667e-05
17 *367:17 8.96899e-05
18 *367:18 9.70094e-05

*RES
1 *367:10 *887:A 0.288803
2 *367:10 *367:11 0.577469
3 *367:8 *367:11 0.866272
4 *367:5 *893:B 9
5 *367:9 *367:8 9
6 *367:16 *813:Q 0.288803
7 *367:5 *367:6 0.184845
8 *367:6 *367:9 0.184845
9 *367:17 *367:16 9
10 *367:7 *367:6 9
11 *367:17 *367:18 0.554398
12 *367:7 *367:15 3.32639
13 *367:12 *367:18 0.184845
14 *367:14 *367:15 9
15 *367:13 *877:A 9
16 *367:12 *367:13 1.66319
17 *367:13 *367:14 0.184845
18 *367:4 *367:13 0.0811615
*END

*D_NET *368 0.0007269

*CONN
*I *872:B I *C 77.91 72.87 *L 0.00475 *D HAJIX1
*I *816:Q O *C 82.11 72.45 *L 0 *D NO2I1JIX1

*CAP
1 *872:B 5.28497e-05
2 *816:Q 2.87518e-05
3 *368:2 0.00024796
4 *368:3 7.54682e-05
5 *368:4 7.54682e-05
6 *368:5 0.000246401

*RES
1 *368:4 *872:B 9
2 *368:3 *368:4 0.554398
3 *368:5 *816:Q 0.288803
4 *368:2 *368:3 9
5 *368:2 *368:5 1.73254
*END

*D_NET *369 0.00223063

*CONN
*I *908:AN I *C 89.25 42.63 *L 0.00164 *D NA3I1JIX0
*I *899:B I *C 88.83 39.69 *L 0.00171 *D NA2JIX0
*I *833:Q O *C 98.91 42.21 *L 0 *D AO22JIX0

*CAP
1 *908:AN 2.71378e-05
2 *899:B 5.28476e-05
3 *833:Q 5.28476e-05
4 *369:4 0.000258101
5 *369:5 0.00028981
6 *369:6 0.00036831
7 *369:7 6.36694e-05
8 *369:8 4.59025e-05
9 *369:9 0.000211671
10 *369:10 0.00037584
11 *369:11 0.000211671
12 *369:12 0.00011732
13 *369:13 4.57076e-05
14 *369:14 0.00010979

*RES
1 *369:7 *908:AN 0.288803
2 *369:4 *899:B 9
3 *369:8 *369:7 9
4 *369:4 *369:5 1.1088
5 *369:5 *369:8 0.184845
6 *369:6 *369:5 9
7 *369:6 *369:10 2.40244
8 *369:9 *369:10 0.184845
9 *369:9 *369:11 1.47835
10 *369:11 *369:12 0.184845
11 *369:12 *369:14 0.554398
12 *369:13 *369:14 9
13 *369:13 *833:Q 9
14 *369:3 *369:13 0.256805
*END

*D_NET *370 0.00339454

*CONN
*I *907:A I *C 87.15 47.25 *L 0.0016 *D NA2JIX0
*I *905:A I *C 82.932 50.4 *L 0.00577 *D EO2JIX1
*I *902:A I *C 90.51 47.25 *L 0.00331 *D ON21JIX1
*I *834:Q O *C 93.87 42.21 *L 0 *D EO2JIX1

*CAP
1 *907:A 5.285e-05
2 *905:A 5.285e-05
3 *902:A 5.285e-05
4 *834:Q 2.87472e-05
5 *370:4 7.27525e-05
6 *370:5 0.000290777
7 *370:6 7.27525e-05
8 *370:7 0.00016714
9 *370:8 0.00016714
10 *370:9 0.00047707
11 *370:10 5.97366e-05
12 *370:11 0.000238153
13 *370:12 0.00019992
14 *370:13 0.000200481
15 *370:14 0.000346357
16 *370:15 0.000281423
17 *370:16 0.000288739
18 *370:17 0.000344799

*RES
1 *834:Q *370:17 0.288803
2 *370:14 *370:17 2.59882
3 *370:15 *370:14 9
4 *370:15 *370:16 1.1088
5 *370:10 *370:16 0.184845
6 *370:11 *902:A 9
7 *370:10 *370:11 0.184845
8 *370:7 *907:A 9
9 *370:11 *370:12 0.92395
10 *370:7 *370:8 0.92395
11 *370:13 *370:12 9
12 *370:9 *370:8 9
13 *370:9 *370:13 1.47835
14 *370:6 *905:A 9
15 *370:5 *370:9 1.84804
16 *370:4 *370:6 0.369553
17 *370:4 *370:5 9
*END

*D_NET *371 0.00112058

*CONN
*I *911:A I *C 96.828 57.96 *L 0.00577 *D EO2JIX1
*I *906:A I *C 96.39 54.81 *L 0.0016 *D NA2JIX0
*I *904:A I *C 95.13 54.81 *L 0.00331 *D ON21JIX1
*I *836:Q O *C 98.91 55.23 *L 0 *D EO2JIX1

*CAP
1 *911:A 5.28492e-05
2 *906:A 5.75012e-05
3 *904:A 2.57794e-05
4 *836:Q 5.289e-05
5 *371:4 8.32805e-05
6 *371:5 0.00012894
7 *371:6 0.000163429
8 *371:7 7.6749e-05
9 *371:8 0.00016714
10 *371:9 0.00016714
11 *371:10 8.16406e-05
12 *371:11 6.32395e-05

*RES
1 *371:9 *911:A 9
2 *371:10 *836:Q 0.577469
3 *371:8 *371:9 0.92395
4 *371:10 *371:11 0.288803
5 *371:7 *371:8 9
6 *371:7 *371:11 0.288803
7 *906:A *371:6 0.577469
8 *371:6 *371:7 0.288803
9 *371:5 *371:6 0.577469
10 *371:4 *371:5 0.577469
11 *904:A *371:4 0.288803
*END

*D_NET *372 0.00192041

*CONN
*I *913:A I *C 98.49 65.31 *L 0.0032 *D NA2JIX1
*I *912:A I *C 100.17 65.31 *L 0.00321 *D NO2JIX1
*I *896:A I *C 102.27 65.31 *L 0.00312 *D EN2JIX0
*I *839:Q O *C 100.17 72.45 *L 0 *D EO2JIX1

*CAP
1 *913:A 5.28488e-05
2 *912:A 5.28488e-05
3 *896:A 5.28488e-05
4 *839:Q 5.28488e-05
5 *372:4 0.000145647
6 *372:5 4.78009e-05
7 *372:6 0.00032529
8 *372:7 0.00048224
9 *372:8 0.000419877
10 *372:9 0.000208091
11 *372:10 8.00606e-05

*RES
1 *372:10 *896:A 9
2 *372:8 *839:Q 9
3 *372:9 *372:10 0.369553
4 *372:7 *912:A 9
5 *372:7 *372:8 2.95683
6 *372:5 *913:A 9
7 *372:6 *372:9 0.92395
8 *372:6 *372:7 0.369553
9 *372:4 *372:5 0.184845
10 *372:4 *372:6 0.739243
*END

*D_NET *373 0.00198972

*CONN
*I *897:A I *C 97.65 72.87 *L 0.0032 *D NA2JIX1
*I *894:A I *C 94.272 73.08 *L 0.00577 *D EO2JIX1
*I *842:Q O *C 95.97 79.59 *L 0 *D EO3JIX0

*CAP
1 *897:A 5.7499e-05
2 *894:A 5.7499e-05
3 *842:Q 5.28527e-05
4 *373:3 0.000196463
5 *373:4 0.000277326
6 *373:5 0.00057999
7 *373:6 0.00057999
8 *373:7 0.0001881

*RES
1 *373:6 *842:Q 9
2 *373:7 *897:A 0.577469
3 *373:5 *373:6 3.32639
4 *373:4 *373:7 1.15494
5 *373:4 *373:5 9
6 *373:3 *894:A 0.577469
7 *373:3 *373:4 1.15494
*END

*D_NET *374 0.00133366

*CONN
*I *916:B I *C 85.47 77.49 *L 0.00171 *D NA2JIX0
*I *914:B I *C 86.73 77.49 *L 0.00334 *D EO2JIX0
*I *856:Q O *C 89.25 85.47 *L 0 *D EO2JIX1

*CAP
1 *916:B 5.741e-05
2 *914:B 5.741e-05
3 *856:Q 0.000106748
4 *374:3 0.00016089
5 *374:4 0.000174878
6 *374:5 0.00031963
7 *374:6 0.00013706
8 *374:7 0.00031963

*RES
1 *374:6 *856:Q 1.15494
2 *374:7 *374:6 9
3 *374:5 *374:7 2.40244
4 *914:B *374:4 0.577469
5 *374:4 *374:5 9
6 *374:3 *374:4 0.866272
7 *916:B *374:3 0.577469
*END

*D_NET *375 0.0022216

*CONN
*I *943:A I *C 90.51 27.51 *L 0.00163 *D OR2JIX0
*I *942:A I *C 93.45 27.51 *L 0.0016 *D NA2JIX0
*I *937:A I *C 87.972 27.72 *L 0.00577 *D EO2JIX1
*I *857:Q O *C 86.31 31.29 *L 0 *D NA2I1JIX1

*CAP
1 *943:A 2.76583e-05
2 *942:A 5.28508e-05
3 *937:A 8.39292e-05
4 *857:Q 5.15415e-05
5 *375:4 0.000127088
6 *375:5 8.18489e-05
7 *375:6 0.000119561
8 *375:7 0.0001675
9 *375:8 0.000211499
10 *375:9 0.00017458
11 *375:10 8.47613e-05
12 *375:11 8.50705e-05
13 *375:12 0.00025015
14 *375:13 0.000209899
15 *375:14 8.76088e-05
16 *375:15 0.000194341
17 *375:16 4.97017e-05
18 *375:17 6.20499e-05
19 *375:18 9.99608e-05

*RES
1 *375:17 *942:A 9
2 *375:17 *375:18 0.369553
3 *375:14 *375:18 0.369553
4 *375:14 *375:16 0.184845
5 *375:11 *943:A 0.288803
6 *375:15 *375:16 9
7 *375:11 *375:12 0.577469
8 *375:12 *375:15 1.73254
9 *375:12 *375:13 0.288803
10 *375:8 *375:13 1.44374
11 *375:7 *937:A 9
12 *375:9 *375:8 9
13 *375:7 *375:9 0.554398
14 *375:9 *375:10 0.369553
15 *375:4 *375:10 0.184845
16 *375:4 *375:6 0.554398
17 *375:5 *375:6 9
18 *857:Q *375:5 0.577469
*END

*D_NET *376 0.00173957

*CONN
*I *944:A I *C 90.93 35.07 *L 0.0016 *D NA2JIX0
*I *935:A I *C 86.31 35.49 *L 0.00301 *D EO2JIX0
*I *931:B I *C 88.83 35.07 *L 0.00329 *D ON21JIX1
*I *858:Q O *C 83.37 34.65 *L 0 *D EO2JIX1

*CAP
1 *944:A 5.28493e-05
2 *935:A 0.00014134
3 *931:B 8.39303e-05
4 *858:Q 4.75215e-05
5 *376:4 9.77006e-05
6 *376:5 7.62308e-05
7 *376:6 0.000126401
8 *376:7 0.000105661
9 *376:8 0.000178771
10 *376:9 0.000105661
11 *376:10 0.00020371
12 *376:11 0.000116099
13 *376:12 8.76107e-05
14 *376:13 0.000117999
15 *376:14 8.00914e-05
16 *376:15 0.000117999

*RES
1 *376:14 *944:A 9
2 *376:14 *376:15 0.369553
3 *376:12 *376:15 0.369553
4 *376:12 *376:13 0.184845
5 *376:9 *931:B 9
6 *376:11 *376:13 0.554398
7 *376:9 *376:10 0.184845
8 *376:10 *376:11 0.184845
9 *376:8 *376:10 0.92395
10 *376:7 *376:8 0.184845
11 *935:A *376:7 9
12 *376:6 *935:A 0.577469
13 *376:4 *376:6 0.577469
14 *376:4 *376:5 0.288803
15 *858:Q *376:5 0.577469
*END

*D_NET *377 0.00171521

*CONN
*I *941:A I *C 82.11 42.63 *L 0.0016 *D NA2JIX0
*I *938:A I *C 80.43 42.63 *L 0.00321 *D NO2JIX1
*I *936:A I *C 80.85 46.83 *L 0.00301 *D EO2JIX0
*I *861:Q O *C 77.91 40.11 *L 0 *D EO2JIX1

*CAP
1 *941:A 5.28488e-05
2 *938:A 5.28488e-05
3 *936:A 8.39301e-05
4 *861:Q 0.00010577
5 *377:4 0.000134518
6 *377:5 6.52785e-05
7 *377:6 0.000136899
8 *377:7 0.00027122
9 *377:8 0.000303809
10 *377:9 0.00031463
11 *377:10 0.000145651
12 *377:11 4.77982e-05

*RES
1 *377:11 *941:A 9
2 *377:9 *936:A 9
3 *377:10 *377:11 0.184845
4 *377:8 *938:A 9
5 *377:8 *377:9 1.66319
6 *377:7 *377:10 0.739243
7 *377:7 *377:8 0.369553
8 *377:6 *377:7 0.739243
9 *377:5 *377:6 9
10 *377:4 *377:5 0.288803
11 *861:Q *377:4 1.15494
*END

*D_NET *378 0.00322152

*CONN
*I *946:A I *C 86.31 57.75 *L 0.00164 *D INVJIX0
*I *939:A I *C 80.43 54.81 *L 0.00153 *D AND2JIX0
*I *921:B I *C 87.15 54.81 *L 0.00284 *D EO3JIX0
*I *864:Q O *C 76.23 47.67 *L 0 *D EO2JIX1

*CAP
1 *946:A 5.28489e-05
2 *939:A 5.28489e-05
3 *921:B 5.28489e-05
4 *864:Q 0.000160851
5 *378:5 0.000189596
6 *378:6 9.7742e-05
7 *378:7 9.92973e-05
8 *378:8 0.000431602
9 *378:9 0.000431602
10 *378:10 0.00053366
11 *378:11 0.000110242
12 *378:12 7.27507e-05
13 *378:13 0.000182243
14 *378:14 0.00053366
15 *378:15 0.000219726

*RES
1 *864:Q *378:5 1.73254
2 *378:5 *378:6 0.288803
3 *378:6 *378:7 0.577469
4 *378:8 *378:7 9
5 *378:12 *946:A 9
6 *378:9 *939:A 9
7 *378:8 *378:9 2.77199
8 *378:11 *378:12 0.369553
9 *378:10 *378:9 9
10 *378:11 *378:15 0.369553
11 *378:10 *378:14 2.95683
12 *378:13 *921:B 9
13 *378:13 *378:15 1.1088
14 *378:13 *378:14 9
15 *378:4 *378:13 0.256805
*END

*D_NET *379 0.00279971

*CONN
*I *925:A I *C 82.53 65.31 *L 0.00163 *D OR2JIX0
*I *924:A I *C 82.11 62.37 *L 0.0016 *D NA2JIX0
*I *917:B I *C 86.73 62.37 *L 0.00284 *D EO3JIX0
*I *867:Q O *C 72.03 62.79 *L 0 *D EO2JIX1

*CAP
1 *925:A 5.28495e-05
2 *924:A 5.28495e-05
3 *917:B 5.28495e-05
4 *867:Q 5.28495e-05
5 *379:6 4.57072e-05
6 *379:7 9.40604e-05
7 *379:8 0.000131299
8 *379:9 0.000423307
9 *379:10 0.000179432
10 *379:11 0.00042398
11 *379:12 4.77968e-05
12 *379:13 0.000182602
13 *379:14 0.00041359
14 *379:15 0.00015631
15 *379:16 5.78375e-05
16 *379:17 5.05205e-05
17 *379:18 4.77968e-05
18 *379:19 4.77968e-05
19 *379:20 0.000286257

*RES
1 *379:5 *379:6 0.256805
2 *379:6 *867:Q 9
3 *379:7 *379:6 9
4 *379:17 *925:A 9
5 *379:7 *379:8 0.554398
6 *379:16 *379:17 0.184845
7 *379:8 *379:9 0.369553
8 *379:12 *924:A 9
9 *379:15 *379:16 0.184845
10 *379:9 *379:11 2.58714
11 *379:12 *379:13 0.184845
12 *379:13 *379:15 0.92395
13 *379:10 *379:11 0.369553
14 *379:14 *379:13 9
15 *379:10 *379:14 0.92395
16 *379:14 *379:20 2.03275
17 *379:19 *379:20 9
18 *379:18 *917:B 9
19 *379:18 *379:19 0.184845
20 *379:4 *379:18 0.0811615
*END

*D_NET *380 0.0015684

*CONN
*I *920:A I *C 86.73 69.93 *L 0.0016 *D NA2JIX0
*I *919:B I *C 84.63 69.93 *L 0.0033 *D NO2JIX1
*I *915:A I *C 89.67 72.87 *L 0.00378 *D EN3JIX0
*I *870:Q O *C 82.95 70.35 *L 0 *D EO2JIX1

*CAP
1 *920:A 5.75002e-05
2 *919:B 4.05421e-05
3 *915:A 5.28498e-05
4 *870:Q 6.98806e-05
5 *380:4 5.80913e-05
6 *380:5 0.00023856
7 *380:6 0.00033976
8 *380:7 0.00010276
9 *380:8 5.38608e-05
10 *380:9 6.11812e-05
11 *380:10 0.00010472
12 *380:11 0.00019525
13 *380:12 0.000145651
14 *380:13 4.78002e-05

*RES
1 *380:13 *915:A 9
2 *380:12 *380:13 0.184845
3 *380:11 *380:12 0.739243
4 *380:10 *380:11 0.554398
5 *380:9 *380:10 0.184845
6 *380:8 *380:9 0.184845
7 *380:7 *380:8 9
8 *920:A *380:6 0.577469
9 *380:6 *380:7 0.577469
10 *380:5 *380:6 1.73254
11 *380:4 *380:5 0.288803
12 *870:Q *380:4 0.288803
13 *870:Q *919:B 0.577469
*END

*D_NET *381 0.0028525

*CONN
*I *916:A I *C 85.89 77.49 *L 0.0016 *D NA2JIX0
*I *914:A I *C 88.41 77.07 *L 0.00301 *D EO2JIX0
*I *872:S O *C 76.23 72.45 *L 0 *D HAJIX1

*CAP
1 *916:A 5.28508e-05
2 *914:A 8.39315e-05
3 *872:S 5.28508e-05
4 *381:3 0.000143252
5 *381:4 0.000143252
6 *381:5 0.000116799
7 *381:6 0.00044865
8 *381:7 0.000124329
9 *381:8 0.00044865
10 *381:9 0.000109659
11 *381:10 0.000237719
12 *381:11 0.00024716
13 *381:12 0.000237719
14 *381:13 9.52478e-05
15 *381:14 0.000159223
16 *381:15 0.000151207

*RES
1 *381:15 *914:A 9
2 *381:12 *916:A 9
3 *381:13 *381:15 0.739243
4 *381:10 *381:12 0.92395
5 *381:14 *381:13 9
6 *381:11 *381:10 9
7 *381:11 *381:14 0.92395
8 *381:9 *381:11 0.554398
9 *381:8 *381:9 0.184845
10 *381:6 *381:8 3.14154
11 *381:6 *381:7 0.184845
12 *381:5 *381:7 0.554398
13 *381:4 *381:5 9
14 *381:3 *381:4 0.739243
15 *872:S *381:3 9
*END

*D_NET *382 0.00314075

*CONN
*I *953:Q O *C 101.43 77.91 *L 0 *D SDFRQJIX1
*I *951:SD I *C 94.29 69.51 *L 0.00147 *D SDFRQJIX1
*I *897:B I *C 97.23 72.87 *L 0.00341 *D NA2JIX1
*I *894:B I *C 93.03 72.87 *L 0.00629 *D EO2JIX1

*CAP
1 *953:Q 5.28507e-05
2 *951:SD 5.28507e-05
3 *897:B 8.39328e-05
4 *894:B 5.28507e-05
5 *382:4 0.000149648
6 *382:5 8.19808e-05
7 *382:6 0.00019444
8 *382:7 0.000375402
9 *382:8 0.000284888
10 *382:9 0.000136151
11 *382:10 0.000159509
12 *382:11 0.00060914
13 *382:12 0.000103554
14 *382:13 0.000377103
15 *382:14 0.000213234
16 *382:15 0.000213234

*RES
1 *382:15 *953:Q 9
2 *382:10 *897:B 9
3 *382:14 *382:15 0.92395
4 *382:10 *382:12 0.554398
5 *382:13 *382:14 9
6 *382:11 *382:12 9
7 *382:11 *382:13 2.88748
8 *382:8 *382:11 2.02121
9 *382:6 *951:SD 9
10 *382:9 *382:8 9
11 *382:5 *894:B 9
12 *382:6 *382:7 1.1088
13 *382:7 *382:9 1.1088
14 *382:4 *382:5 0.369553
15 *382:4 *382:7 0.554398
*END

*D_NET *383 0.00343355

*CONN
*I *943:B I *C 91.35 27.51 *L 0.00163 *D OR2JIX0
*I *942:B I *C 93.03 27.51 *L 0.00171 *D NA2JIX0
*I *937:B I *C 86.73 27.51 *L 0.00629 *D EO2JIX1
*I *908:Q O *C 90.93 43.47 *L 0 *D NA3I1JIX0
*I *898:A I *C 90.93 39.69 *L 0.0032 *D NA2JIX1

*CAP
1 *943:B 5.28478e-05
2 *942:B 5.28478e-05
3 *937:B 5.28478e-05
4 *908:Q 2.87487e-05
5 *898:A 5.28478e-05
6 *383:8 4.57118e-05
7 *383:9 0.00030198
8 *383:10 6.66516e-05
9 *383:11 0.000228184
10 *383:12 6.48037e-05
11 *383:13 0.000183043
12 *383:14 0.000197358
13 *383:15 0.000405573
14 *383:16 0.000204894
15 *383:17 7.62828e-05
16 *383:18 7.62828e-05
17 *383:19 6.32369e-05
18 *383:20 0.00055807
19 *383:21 0.000557857
20 *383:22 4.57118e-05
21 *383:23 0.000117779

*RES
1 *383:19 *908:Q 0.288803
2 *383:12 *383:19 0.288803
3 *383:13 *383:12 9
4 *383:11 *898:A 9
5 *383:11 *383:13 0.92395
6 *383:10 *383:11 0.369553
7 *383:10 *383:18 0.184845
8 *383:17 *383:18 0.369553
9 *383:17 *383:21 0.184845
10 *383:20 *383:21 2.95683
11 *383:8 *937:B 9
12 *383:7 *383:8 0.256805
13 *383:16 *383:20 0.184845
14 *383:9 *383:8 9
15 *383:14 *943:B 9
16 *383:6 *383:14 0.256805
17 *383:14 *383:16 1.66319
18 *383:9 *383:15 2.03275
19 *383:15 *383:14 9
20 *383:15 *383:23 0.739243
21 *383:22 *942:B 9
22 *383:22 *383:23 9
23 *383:5 *383:22 0.256805
*END

*D_NET *384 0.00223238

*CONN
*I *944:B I *C 90.51 35.07 *L 0.00171 *D NA2JIX0
*I *935:B I *C 84.63 35.07 *L 0.00334 *D EO2JIX0
*I *931:A I *C 89.67 35.07 *L 0.00331 *D ON21JIX1
*I *898:Q O *C 90.93 38.85 *L 0 *D NA2JIX1

*CAP
1 *944:B 2.47678e-05
2 *935:B 5.28488e-05
3 *931:A 2.57813e-05
4 *898:Q 5.74991e-05
5 *384:4 0.000183289
6 *384:5 0.00051699
7 *384:6 0.000183289
8 *384:7 0.000136666
9 *384:8 0.000156119
10 *384:9 0.000100306
11 *384:10 0.00011832
12 *384:11 0.00055817
13 *384:12 0.00011832

*RES
1 *931:A *384:7 0.288803
2 *384:7 *944:B 0.288803
3 *384:7 *384:8 0.866272
4 *384:8 *384:9 0.577469
5 *384:10 *384:9 9
6 *384:10 *384:12 0.554398
7 *384:11 *384:12 9
8 *384:11 *898:Q 0.577469
9 *384:5 *384:11 4.33122
10 *384:6 *384:5 9
11 *384:4 *384:6 1.1088
12 *935:B *384:4 9
*END

*D_NET *385 0.00307882

*CONN
*I *941:B I *C 81.69 42.63 *L 0.00171 *D NA2JIX0
*I *938:B I *C 80.01 42.63 *L 0.0033 *D NO2JIX1
*I *936:B I *C 79.17 47.25 *L 0.00334 *D EO2JIX0
*I *901:Q O *C 87.15 49.77 *L 0 *D EO2JIX1

*CAP
1 *941:B 2.57827e-05
2 *938:B 0.000152241
3 *936:B 5.28495e-05
4 *901:Q 5.28925e-05
5 *385:4 0.000201092
6 *385:5 0.000135506
7 *385:6 0.000104544
8 *385:7 0.000260068
9 *385:8 0.00039273
10 *385:9 0.000154171
11 *385:10 0.00056473
12 *385:11 5.3039e-05
13 *385:12 0.000201092
14 *385:13 8.32769e-05
15 *385:14 0.00056317
16 *385:15 8.16396e-05

*RES
1 *385:15 *901:Q 0.577469
2 *385:14 *385:15 0.288803
3 *385:10 *385:14 4.62003
4 *385:11 *385:10 9
5 *385:9 *385:11 0.184845
6 *385:8 *936:B 9
7 *385:8 *385:9 1.1088
8 *385:7 *385:8 1.66319
9 *385:6 *385:7 9
10 *385:6 *938:B 0.577469
11 *385:13 *941:B 0.288803
12 *385:12 *385:13 0.577469
13 *385:5 *938:B 0.577469
14 *385:4 *385:12 1.44374
15 *385:4 *385:5 0.577469
*END

*D_NET *386 0.00244218

*CONN
*I *945:A I *C 82.53 57.75 *L 0.00164 *D INVJIX0
*I *939:B I *C 81.27 54.81 *L 0.0017 *D AND2JIX0
*I *921:C I *C 85.47 54.81 *L 0.0034 *D EO3JIX0
*I *909:Q O *C 88.83 57.33 *L 0 *D EO2JIX1

*CAP
1 *945:A 0.000109037
2 *939:B 5.28469e-05
3 *921:C 5.74971e-05
4 *909:Q 0.000372943
5 *386:4 7.46529e-05
6 *386:5 0.000388641
7 *386:6 0.00020122
8 *386:7 0.000148078
9 *386:8 5.51194e-05
10 *386:9 8.80716e-05
11 *386:10 4.78026e-05
12 *386:11 0.00043044
13 *386:12 0.000415833

*RES
1 *386:11 *909:Q 3.75375
2 *945:A *386:11 0.577469
3 *386:9 *945:A 0.577469
4 *386:10 *386:9 9
5 *921:C *386:12 0.577469
6 *386:8 *386:10 0.184845
7 *386:5 *386:12 2.88748
8 *386:7 *386:8 0.184845
9 *386:6 *386:5 9
10 *386:6 *386:7 0.739243
11 *386:4 *386:6 0.369553
12 *939:B *386:4 9
*END

*D_NET *387 0.00243334

*CONN
*I *925:B I *C 83.37 65.31 *L 0.00163 *D OR2JIX0
*I *924:B I *C 81.69 62.37 *L 0.00171 *D NA2JIX0
*I *917:C I *C 85.05 62.37 *L 0.0034 *D EO3JIX0
*I *895:Q O *C 93.03 64.89 *L 0 *D EO2JIX1

*CAP
1 *925:B 0.000110348
2 *924:B 5.7503e-05
3 *917:C 5.7503e-05
4 *895:Q 0.000578417
5 *387:4 0.000203104
6 *387:5 0.000292571
7 *387:6 0.000150637
8 *387:7 0.000150637
9 *387:8 0.00063592
10 *387:9 0.0001967

*RES
1 *387:8 *895:Q 6.06377
2 *925:B *387:8 0.577469
3 *387:7 *925:B 9
4 *917:C *387:9 0.577469
5 *387:6 *387:7 0.92395
6 *387:5 *387:9 1.15494
7 *387:5 *387:6 9
8 *387:4 *387:5 1.15494
9 *924:B *387:4 0.577469
*END

*D_NET *388 0.00254779

*CONN
*I *920:B I *C 86.31 69.93 *L 0.00171 *D NA2JIX0
*I *919:A I *C 85.05 69.93 *L 0.00321 *D NO2JIX1
*I *915:B I *C 87.99 72.87 *L 0.00284 *D EN3JIX0
*I *894:Q O *C 95.13 72.45 *L 0 *D EO2JIX1

*CAP
1 *920:B 8.39342e-05
2 *919:A 5.28533e-05
3 *915:B 5.28533e-05
4 *894:Q 5.28533e-05
5 *388:5 0.000120482
6 *388:6 0.000478687
7 *388:7 0.000332199
8 *388:8 0.00013119
9 *388:9 4.57088e-05
10 *388:10 0.0005696
11 *388:11 8.74195e-05
12 *388:12 8.74195e-05
13 *388:13 0.000452603

*RES
1 *388:5 *919:A 9
2 *388:6 *920:B 9
3 *388:5 *388:6 0.554398
4 *388:11 *894:Q 9
5 *388:6 *388:7 1.66319
6 *388:11 *388:12 0.369553
7 *388:8 *388:7 9
8 *388:13 *388:12 9
9 *388:8 *388:10 0.739243
10 *388:10 *388:13 3.14154
11 *388:9 *915:B 9
12 *388:9 *388:10 9
13 *388:4 *388:9 0.0439453
*END

*D_NET *389 0.00065873

*CONN
*I *954:Q O *C 91.35 77.91 *L 0 *D NO2I1JIX0
*I *953:D I *C 94.29 77.07 *L 0.00166 *D SDFRQJIX1

*CAP
1 *954:Q 5.28509e-05
2 *953:D 5.28509e-05
3 *389:3 4.57104e-05
4 *389:4 0.00017712
5 *389:5 7.65398e-05
6 *389:6 7.65398e-05
7 *389:7 0.00017712

*RES
1 *389:5 *953:D 9
2 *389:5 *389:6 0.369553
3 *389:7 *389:6 9
4 *389:4 *389:7 1.29364
5 *389:3 *389:4 9
6 *389:3 *954:Q 9
7 *389:2 *389:3 0.256805
*END

*D_NET *390 0.00064552

*CONN
*I *952:Q O *C 90.93 70.35 *L 0 *D NO2I1JIX0
*I *951:D I *C 94.71 69.51 *L 0.00166 *D SDFRQJIX1

*CAP
1 *952:Q 2.57788e-05
2 *951:D 5.28499e-05
3 *390:4 6.23097e-05
4 *390:5 4.57102e-05
5 *390:6 0.00020658
6 *390:7 4.57102e-05
7 *390:8 0.00020658

*RES
1 *952:Q *390:4 0.288803
2 *390:3 *390:5 0.256805
3 *390:5 *390:4 9
4 *390:6 *390:5 9
5 *390:6 *390:8 1.29364
6 *390:7 *951:D 9
7 *390:7 *390:8 9
8 *390:2 *390:7 0.256805
*END

*D_NET *391 0.00121578

*CONN
*I *950:Q O *C 89.25 64.89 *L 0 *D NO2I1JIX0
*I *949:D I *C 93.45 61.95 *L 0.00166 *D SDFRQJIX1

*CAP
1 *950:Q 2.87497e-05
2 *949:D 5.2851e-05
3 *391:2 0.00035725
4 *391:3 0.000209061
5 *391:4 0.00035881
6 *391:5 0.000209061

*RES
1 *391:3 *949:D 9
2 *391:3 *391:5 1.1088
3 *391:4 *391:5 9
4 *391:2 *391:4 2.88748
5 *391:2 *950:Q 0.288803
*END

*D_NET *392 0.00108686

*CONN
*I *948:Q O *C 93.45 57.33 *L 0 *D NO2I1JIX0
*I *947:D I *C 93.03 50.61 *L 0.00166 *D SDFRQJIX1

*CAP
1 *948:Q 3.71231e-05
2 *947:D 5.28517e-05
3 *392:2 0.00046473
4 *392:3 6.74314e-05
5 *392:4 0.00046473

*RES
1 *392:3 *948:Q 0.288803
2 *392:4 *392:3 9
3 *392:2 *392:4 2.77199
4 *947:D *392:2 9
*END

*D_NET *393 0.00078706

*CONN
*I *948:AN I *C 92.19 57.75 *L 0.00163 *D NO2I1JIX0
*I *921:Q O *C 90.51 55.65 *L 0 *D EO3JIX0

*CAP
1 *948:AN 5.28486e-05
2 *921:Q 7.43185e-05
3 *393:2 0.00010463
4 *393:3 0.00027763
5 *393:4 0.00027763

*RES
1 *393:4 *948:AN 9
2 *393:3 *393:4 1.1088
3 *393:2 *393:3 9
4 *921:Q *393:2 0.577469
*END

*D_NET *394 0.00055874

*CONN
*I *950:AN I *C 90.51 65.31 *L 0.00163 *D NO2I1JIX0
*I *917:Q O *C 90.09 63.21 *L 0 *D EO3JIX0

*CAP
1 *950:AN 5.28495e-05
2 *917:Q 5.28495e-05
3 *394:2 0.00022652
4 *394:3 0.00022652

*RES
1 *394:3 *950:AN 9
2 *394:2 *394:3 1.1088
3 *917:Q *394:2 9
*END

*D_NET *395 0.0010945

*CONN
*I *952:AN I *C 89.67 69.93 *L 0.00163 *D NO2I1JIX0
*I *915:Q O *C 91.77 73.71 *L 0 *D EN3JIX0

*CAP
1 *952:AN 5.28519e-05
2 *915:Q 5.92904e-05
3 *395:2 0.000184302
4 *395:3 0.00025197
5 *395:4 0.00026208
6 *395:5 8.95995e-05
7 *395:6 0.000194412

*RES
1 *395:5 *915:Q 0.577469
2 *395:6 *395:5 9
3 *395:4 *395:6 0.739243
4 *395:3 *395:4 0.554398
5 *395:2 *395:3 1.1088
6 *952:AN *395:2 9
*END

*D_NET *396 5.156e-05

*CONN
*I *954:AN I *C 90.09 77.49 *L 0.00163 *D NO2I1JIX0
*I *914:Q O *C 88.83 77.91 *L 0 *D EO2JIX0

*CAP
1 *954:AN 2.578e-05
2 *914:Q 2.578e-05

*RES
1 *914:Q *954:AN 0.28875
*END

*D_NET *397 0.0004367

*CONN
*I *802:Q O *C 62.79 72.45 *L 0 *D INVJIX1
*I *792:B I *C 64.89 72.87 *L 0.00341 *D NA2JIX1

*CAP
1 *802:Q 5.34305e-05
2 *792:B 2.57804e-05
3 *397:2 8.21806e-05
4 *397:3 8.16399e-05
5 *397:4 8.32806e-05
6 *397:5 0.00011039

*RES
1 *397:4 *792:B 0.28875
2 *397:4 *397:5 0.577499986
3 *397:3 *397:5 0.577499986
4 *397:2 *397:3 0.28875
5 *802:Q *397:2 0.577499986
*END

*D_NET *398 0.00033396

*CONN
*I *801:Q O *C 64.05 72.45 *L 0 *D INVJIX1
*I *792:A I *C 65.31 72.87 *L 0.0032 *D NA2JIX1

*CAP
1 *801:Q 2.87491e-05
2 *792:A 5.75004e-05
3 *398:2 0.000109481
4 *398:3 0.00013823

*RES
1 *398:3 *792:A 0.577504
2 *398:2 *398:3 0.866249979
3 *398:2 *801:Q 0.288746
*END

*D_NET *399 9.906e-05

*CONN
*I *799:Q O *C 62.37 46.41 *L 0 *D NA2JIX0
*I *779:B I *C 63.63 47.25 *L 0.00341 *D NA2JIX1

*CAP
1 *799:Q 4.953e-05
2 *779:B 4.953e-05

*RES
1 *799:Q *779:B 0.5775
*END

*D_NET *400 0.00031308

*CONN
*I *798:Q O *C 63.21 69.09 *L 0 *D NA2JIX1
*I *782:B I *C 66.15 69.93 *L 0.00341 *D NA2JIX1

*CAP
1 *798:Q 0.00015654
2 *782:B 0.00015654

*RES
1 *798:Q *782:B 1.7325
*END

*D_NET *401 0.00079188

*CONN
*I *797:Q O *C 57.75 38.85 *L 0 *D NA2JIX0
*I *776:B I *C 64.47 39.69 *L 0.00341 *D NA2JIX1

*CAP
1 *797:Q 3.85292e-05
2 *776:B 4.95308e-05
3 *401:2 0.00025038
4 *401:3 6.72791e-05
5 *401:4 0.00027913
6 *401:5 0.000107031

*RES
1 *401:5 *776:B 0.577518
2 *401:4 *401:5 0.577518
3 *401:2 *401:4 3.17624998
4 *401:2 *401:3 0.288759
5 *797:Q *401:3 0.577518
*END

*D_NET *402 0.00126806

*CONN
*I *796:Q O *C 64.05 28.35 *L 0 *D NA2JIX0
*I *773:B I *C 62.37 35.07 *L 0.00341 *D NA2JIX1

*CAP
1 *796:Q 9.07396e-05
2 *773:B 5.28504e-05
3 *402:2 0.00025782
4 *402:3 0.000227441
5 *402:4 0.000155148
6 *402:5 0.000147619
7 *402:6 0.000121052
8 *402:7 8.87411e-05
9 *402:8 0.00012665

*RES
1 *402:5 *773:B 9
2 *402:6 *796:Q 0.866272
3 *402:4 *402:5 0.92395
4 *402:7 *402:6 9
5 *402:3 *402:4 0.184845
6 *402:7 *402:8 0.554398
7 *402:2 *402:3 1.47835
8 *402:2 *402:8 0.369553
*END

*D_NET *403 0.00047598

*CONN
*I *800:Q O *C 73.29 73.71 *L 0 *D NA2JIX1
*I *786:AN I *C 74.13 72.87 *L 0.00162 *D NO2I1JIX1
*I *785:A I *C 71.61 72.87 *L 0.00323 *D INVJIX1

*CAP
1 *800:Q 5.45299e-05
2 *786:AN 2.57799e-05
3 *785:A 5.75001e-05
4 *403:3 0.00018346
5 *403:4 0.00015471

*RES
1 *800:Q *786:AN 0.288746
2 *403:4 *800:Q 0.288746
3 *403:3 *785:A 0.577491
4 *403:3 *403:4 1.44375002
*END

*D_NET *404 0.00061694

*CONN
*I *795:Q O *C 64.89 31.29 *L 0 *D OR2JIX0
*I *775:B I *C 64.05 35.07 *L 0.00171 *D NA2JIX0

*CAP
1 *795:Q 5.28513e-05
2 *775:B 5.28513e-05
3 *404:2 0.00017935
4 *404:3 0.000141441
5 *404:4 7.62692e-05
6 *404:5 0.000114181

*RES
1 *404:4 *795:Q 9
2 *404:3 *775:B 9
3 *404:4 *404:5 0.369553
4 *404:2 *404:3 0.739243
5 *404:2 *404:5 0.369553
*END

*D_NET *405 0.00015468

*CONN
*I *794:Q O *C 61.11 38.85 *L 0 *D OR2JIX0
*I *778:B I *C 62.37 39.69 *L 0.00341 *D NA2JIX1

*CAP
1 *794:Q 7.734e-05
2 *778:B 7.734e-05

*RES
1 *794:Q *778:B 0.86625
*END

*D_NET *406 0.00087254

*CONN
*I *793:Q O *C 76.23 77.91 *L 0 *D NO2JIX0
*I *786:B I *C 74.97 72.87 *L 0.00333 *D NO2I1JIX1

*CAP
1 *793:Q 0.000133021
2 *786:B 5.28491e-05
3 *406:2 0.00026167
4 *406:3 0.000163331
5 *406:4 0.00026167

*RES
1 *406:3 *793:Q 0.866272
2 *406:4 *406:3 9
3 *406:2 *406:4 2.03275
4 *786:B *406:2 9
*END

*D_NET *407 9.906e-05

*CONN
*I *792:Q O *C 65.31 73.71 *L 0 *D NA2JIX1
*I *784:B I *C 66.57 72.87 *L 0.00341 *D NA2JIX1

*CAP
1 *792:Q 4.953e-05
2 *784:B 4.953e-05

*RES
1 *792:Q *784:B 0.5775
*END

*D_NET *408 0.00057316

*CONN
*I *791:Q O *C 61.11 46.41 *L 0 *D OR2JIX0
*I *781:B I *C 65.31 47.25 *L 0.00341 *D NA2JIX1

*CAP
1 *791:Q 2.87518e-05
2 *781:B 2.5781e-05
3 *408:2 0.000203298
4 *408:3 0.00023205
5 *408:4 8.32809e-05

*RES
1 *408:4 *781:B 0.288759
2 *408:3 *408:4 0.577518
3 *408:2 *408:3 2.59875011
4 *408:2 *791:Q 0.288759
*END

*D_NET *409 0.00080656

*CONN
*I *790:Q O *C 67.41 32.55 *L 0 *D EO2JIX0
*I *774:B I *C 65.31 35.07 *L 0.00629 *D EO2JIX1

*CAP
1 *790:Q 5.28903e-05
2 *774:B 5.28499e-05
3 *409:2 0.00013379
4 *409:3 0.00017662
5 *409:4 0.00017662
6 *409:5 8.16007e-05
7 *409:6 0.000132189

*RES
1 *409:4 *774:B 9
2 *409:5 *790:Q 0.577469
3 *409:3 *409:4 0.92395
4 *409:5 *409:6 0.288803
5 *409:2 *409:3 9
6 *409:2 *409:6 0.866272
*END

*D_NET *410 0.00120788

*CONN
*I *789:Q O *C 60.69 72.45 *L 0 *D EO2JIX1
*I *783:A I *C 69.072 73.08 *L 0.00577 *D EO2JIX1

*CAP
1 *789:Q 5.28476e-05
2 *783:A 5.28476e-05
3 *410:4 4.57067e-05
4 *410:5 0.00050538
5 *410:6 4.57067e-05
6 *410:7 0.00050538

*RES
1 *410:3 *410:4 0.256805
2 *410:4 *789:Q 9
3 *410:5 *410:4 9
4 *410:5 *410:7 3.32639
5 *410:6 *783:A 9
6 *410:6 *410:7 9
7 *410:2 *410:6 0.256805
*END

*D_NET *411 0.0004739

*CONN
*I *788:Q O *C 66.57 49.77 *L 0 *D EO2JIX1
*I *780:B I *C 66.57 47.25 *L 0.00629 *D EO2JIX1

*CAP
1 *788:Q 5.28492e-05
2 *780:B 5.28492e-05
3 *411:2 0.0001841
4 *411:3 0.0001841

*RES
1 *411:3 *788:Q 9
2 *411:2 *411:3 1.1088
3 *780:B *411:2 9
*END

*D_NET *412 5.156e-05

*CONN
*I *787:Q O *C 60.69 42.21 *L 0 *D EO2JIX0
*I *777:B I *C 61.95 42.63 *L 0.00629 *D EO2JIX1

*CAP
1 *787:Q 2.578e-05
2 *777:B 2.578e-05

*RES
1 *787:Q *777:B 0.28875
*END

*D_NET *413 0.00144734

*CONN
*I *785:Q O *C 72.03 72.45 *L 0 *D INVJIX1
*I *784:A I *C 66.99 72.87 *L 0.0032 *D NA2JIX1
*I *783:B I *C 67.83 72.87 *L 0.00629 *D EO2JIX1

*CAP
1 *785:Q 5.15527e-05
2 *784:A 5.28519e-05
3 *783:B 2.57797e-05
4 *413:3 0.000115062
5 *413:4 0.000134801
6 *413:5 0.000115062
7 *413:6 0.000112028
8 *413:7 0.0004322
9 *413:8 0.000109047
10 *413:9 0.000298962

*RES
1 *413:8 *785:Q 0.577469
2 *783:B *413:6 0.288803
3 *413:8 *413:9 0.577469
4 *413:6 *413:7 0.866272
5 *413:7 *413:9 2.02121
6 *413:4 *413:7 0.866272
7 *413:5 *413:4 9
8 *413:3 *413:5 0.739243
9 *784:A *413:3 9
*END

*D_NET *414 0.00058692

*CONN
*I *784:Q O *C 66.99 73.71 *L 0 *D NA2JIX1
*I *782:A I *C 66.57 69.93 *L 0.0032 *D NA2JIX1

*CAP
1 *784:Q 2.87512e-05
2 *782:A 5.285e-05
3 *414:2 0.00015414
4 *414:3 9.93002e-05
5 *414:4 0.00015414
6 *414:5 9.77408e-05

*RES
1 *414:5 *784:Q 0.288803
2 *414:3 *414:5 0.577469
3 *414:4 *414:3 9
4 *414:2 *414:4 0.92395
5 *782:A *414:2 9
*END

*D_NET *415 0.00379646

*CONN
*I *782:Q O *C 66.57 69.09 *L 0 *D NA2JIX1
*I *781:A I *C 65.73 47.25 *L 0.0032 *D NA2JIX1
*I *780:A I *C 67.812 47.04 *L 0.00577 *D EO2JIX1

*CAP
1 *782:Q 4.05375e-05
2 *781:A 5.28485e-05
3 *780:A 5.28485e-05
4 *415:5 0.000325959
5 *415:6 0.000295787
6 *415:7 0.000256518
7 *415:8 0.000256518
8 *415:9 0.000175729
9 *415:10 0.000152082
10 *415:11 0.000213221
11 *415:12 0.000197622
12 *415:13 0.000197622
13 *415:14 0.000248538
14 *415:15 7.70727e-05
15 *415:16 0.000241217
16 *415:17 0.00040727
17 *415:18 0.00040727
18 *415:19 4.5708e-05
19 *415:20 0.000152082

*RES
1 *415:15 *782:Q 0.577469
2 *415:16 *415:15 9
3 *415:14 *415:16 1.66319
4 *415:14 *415:18 0.184845
5 *415:17 *415:18 2.58714
6 *415:13 *415:17 0.184845
7 *415:12 *415:13 1.1088
8 *415:8 *415:12 0.184845
9 *415:7 *415:8 1.47835
10 *415:6 *415:7 0.184845
11 *415:5 *415:6 1.84804
12 *415:5 *415:11 0.369553
13 *415:9 *781:A 9
14 *415:4 *415:9 0.256805
15 *415:9 *415:11 0.92395
16 *415:10 *415:9 9
17 *415:10 *415:20 0.92395
18 *415:19 *780:A 9
19 *415:19 *415:20 9
20 *415:3 *415:19 0.256805
*END

*D_NET *416 0.00052314

*CONN
*I *781:Q O *C 65.73 46.41 *L 0 *D NA2JIX1
*I *779:A I *C 64.05 47.25 *L 0.0032 *D NA2JIX1

*CAP
1 *781:Q 2.87512e-05
2 *779:A 5.74989e-05
3 *416:2 0.00023282
4 *416:3 0.000204069

*RES
1 *781:Q *416:3 0.288746
2 *416:2 *416:3 1.44375002
3 *779:A *416:2 0.577491
*END

*D_NET *417 0.00124586

*CONN
*I *779:Q O *C 64.05 46.41 *L 0 *D NA2JIX1
*I *778:A I *C 62.79 39.69 *L 0.0032 *D NA2JIX1
*I *777:A I *C 63.192 42.84 *L 0.00577 *D EO2JIX1

*CAP
1 *779:Q 3.71212e-05
2 *778:A 5.28505e-05
3 *777:A 5.28505e-05
4 *417:3 0.000126002
5 *417:4 0.000133319
6 *417:5 0.000105011
7 *417:6 0.00029545
8 *417:7 0.000219269
9 *417:8 8.19379e-05
10 *417:9 6.74303e-05
11 *417:10 7.4621e-05

*RES
1 *417:9 *779:Q 0.288803
2 *417:10 *417:9 9
3 *417:8 *417:10 0.369553
4 *417:7 *417:8 0.184845
5 *417:6 *777:A 9
6 *417:6 *417:7 1.29364
7 *417:5 *417:6 0.554398
8 *417:4 *417:5 0.184845
9 *417:3 *417:4 0.739243
10 *778:A *417:3 9
*END

*D_NET *418 0.0004545

*CONN
*I *778:Q O *C 62.79 38.85 *L 0 *D NA2JIX1
*I *776:A I *C 64.89 39.69 *L 0.0032 *D NA2JIX1

*CAP
1 *778:Q 2.87505e-05
2 *776:A 5.75009e-05
3 *418:2 0.00016975
4 *418:3 0.0001985

*RES
1 *776:A *418:3 0.5775
2 *418:2 *418:3 1.15499997
3 *778:Q *418:2 0.28875
*END

*D_NET *419 0.00119043

*CONN
*I *776:Q O *C 64.89 38.85 *L 0 *D NA2JIX1
*I *775:A I *C 64.47 35.07 *L 0.0016 *D NA2JIX0
*I *774:A I *C 66.552 35.28 *L 0.00577 *D EO2JIX1

*CAP
1 *776:Q 2.87485e-05
2 *775:A 5.28515e-05
3 *774:A 8.39309e-05
4 *419:3 5.933e-05
5 *419:4 0.00035859
6 *419:5 6.74282e-05
7 *419:6 0.000193048
8 *419:7 6.58687e-05
9 *419:8 0.00010376
10 *419:9 0.000176868

*RES
1 *419:7 *776:Q 0.288803
2 *419:8 *774:A 9
3 *419:5 *419:7 0.288803
4 *419:8 *419:9 0.184845
5 *419:6 *419:5 9
6 *419:4 *419:9 0.92395
7 *419:4 *419:6 1.1088
8 *419:3 *419:4 0.369553
9 *775:A *419:3 9
*END

*D_NET *420 0.00052108

*CONN
*I *775:Q O *C 64.47 35.91 *L 0 *D NA2JIX0
*I *773:A I *C 62.79 35.07 *L 0.0032 *D NA2JIX1

*CAP
1 *775:Q 2.87103e-05
2 *773:A 5.74101e-05
3 *420:2 0.00023183
4 *420:3 0.00020313

*RES
1 *420:3 *775:Q 0.288746
2 *420:2 *773:A 0.577491
3 *420:2 *420:3 1.44375002
*END

*D_NET *421 0.00010308

*CONN
*I *832:Q O *C 76.23 62.79 *L 0 *D INVJIX1
*I *822:B I *C 77.07 62.37 *L 0.00341 *D NA2JIX1

*CAP
1 *832:Q 5.154e-05
2 *822:B 5.154e-05

*RES
1 *832:Q *822:B 0.5775
*END

*D_NET *422 0.00059686

*CONN
*I *831:Q O *C 80.01 62.79 *L 0 *D INVJIX1
*I *822:A I *C 77.49 62.37 *L 0.0032 *D NA2JIX1

*CAP
1 *831:Q 6.52392e-05
2 *822:A 5.74996e-05
3 *422:2 0.00020444
4 *422:3 9.39891e-05
5 *422:4 0.00017569

*RES
1 *422:3 *831:Q 0.5775
2 *422:3 *422:4 0.28875
3 *422:2 *422:4 1.15499997
4 *822:A *422:2 0.5775
*END

*D_NET *423 0.0008237

*CONN
*I *829:Q O *C 64.89 61.53 *L 0 *D NA2JIX0
*I *809:B I *C 61.53 62.37 *L 0.00341 *D NA2JIX1

*CAP
1 *829:Q 2.87493e-05
2 *809:B 5.74986e-05
3 *423:2 0.0003831
4 *423:3 0.000354351

*RES
1 *829:Q *423:3 0.288759
2 *423:2 *423:3 2.59875011
3 *809:B *423:2 0.577518
*END

*D_NET *424 0.00065316

*CONN
*I *828:Q O *C 74.55 61.53 *L 0 *D NA2JIX1
*I *812:B I *C 73.71 65.31 *L 0.00341 *D NA2JIX1

*CAP
1 *828:Q 2.87495e-05
2 *812:B 5.28491e-05
3 *424:2 0.0001348
4 *424:3 0.00015176
5 *424:4 0.00015176
6 *424:5 0.000133239

*RES
1 *424:4 *812:B 9
2 *424:3 *424:4 0.92395
3 *828:Q *424:5 0.288803
4 *424:2 *424:3 9
5 *424:2 *424:5 0.866272
*END

*D_NET *425 0.0006347

*CONN
*I *827:Q O *C 56.49 31.29 *L 0 *D NA2JIX0
*I *806:B I *C 61.95 32.13 *L 0.00341 *D NA2JIX1

*CAP
1 *827:Q 2.87082e-05
2 *806:B 2.47704e-05
3 *425:2 0.00023517
4 *425:3 0.00026387
5 *425:4 8.21788e-05

*RES
1 *425:4 *806:B 0.288759
2 *425:3 *425:4 0.577518
3 *425:2 *425:3 3.17624998
4 *425:2 *827:Q 0.288759
*END

*D_NET *426 0.00078108

*CONN
*I *826:Q O *C 77.91 28.35 *L 0 *D NA2JIX0
*I *803:B I *C 77.49 32.13 *L 0.00341 *D NA2JIX1

*CAP
1 *826:Q 5.28494e-05
2 *803:B 8.39276e-05
3 *426:2 0.000294171
4 *426:3 0.00035013

*RES
1 *426:3 *803:B 9
2 *426:2 *426:3 1.47835
3 *826:Q *426:2 9
*END

*D_NET *427 0.00176199

*CONN
*I *830:Q O *C 83.79 73.71 *L 0 *D NA2JIX1
*I *816:AN I *C 80.85 72.87 *L 0.00162 *D NO2I1JIX1
*I *815:A I *C 81.69 65.31 *L 0.00323 *D INVJIX1

*CAP
1 *830:Q 5.28477e-05
2 *816:AN 5.28477e-05
3 *815:A 5.15415e-05
4 *427:4 8.8069e-05
5 *427:5 0.000460922
6 *427:6 0.00051569
7 *427:7 0.000212697
8 *427:8 6.89633e-05
9 *427:9 4.57106e-05
10 *427:10 0.000212697

*RES
1 *427:4 *815:A 0.577469
2 *427:5 *427:4 9
3 *427:8 *816:AN 9
4 *427:5 *427:6 2.95683
5 *427:6 *427:8 0.369553
6 *427:7 *427:6 9
7 *427:7 *427:10 1.47835
8 *427:9 *427:10 9
9 *427:9 *830:Q 9
10 *427:3 *427:9 0.256805
*END

*D_NET *428 0.00077474

*CONN
*I *825:Q O *C 76.23 28.35 *L 0 *D OR2JIX0
*I *805:B I *C 75.81 32.13 *L 0.00171 *D NA2JIX0

*CAP
1 *825:Q 2.76618e-05
2 *805:B 8.3929e-05
3 *428:2 5.63721e-05
4 *428:3 6.52386e-05
5 *428:4 0.000242788
6 *428:5 0.00029875

*RES
1 *428:5 *805:B 9
2 *428:4 *428:5 1.29364
3 *428:3 *428:4 9
4 *428:2 *428:3 0.288803
5 *428:2 *825:Q 0.288803
*END

*D_NET *429 0.00010308

*CONN
*I *824:Q O *C 59.01 31.29 *L 0 *D OR2JIX0
*I *808:B I *C 59.85 32.13 *L 0.00341 *D NA2JIX1

*CAP
1 *824:Q 5.154e-05
2 *808:B 5.154e-05

*RES
1 *824:Q *808:B 0.5775
*END

*D_NET *430 0.001173

*CONN
*I *823:Q O *C 85.47 72.45 *L 0 *D NO2JIX0
*I *816:B I *C 81.69 72.87 *L 0.00333 *D NO2I1JIX1

*CAP
1 *823:Q 5.75018e-05
2 *816:B 5.28505e-05
3 *430:2 7.08483e-05
4 *430:3 0.000446878
5 *430:4 7.08483e-05
6 *430:5 0.00047407

*RES
1 *823:Q *430:5 0.577469
2 *430:3 *430:5 2.88748
3 *430:4 *430:3 9
4 *430:2 *430:4 0.554398
5 *816:B *430:2 9
*END

*D_NET *431 0.0007704

*CONN
*I *822:Q O *C 77.49 61.53 *L 0 *D NA2JIX1
*I *814:B I *C 75.81 65.31 *L 0.00341 *D NA2JIX1

*CAP
1 *822:Q 5.28503e-05
2 *814:B 5.75003e-05
3 *431:2 0.00019178
4 *431:3 0.000151841
5 *431:4 0.000164591
6 *431:5 0.000151841

*RES
1 *431:3 *822:Q 9
2 *431:3 *431:5 0.739243
3 *431:4 *431:5 9
4 *431:2 *814:B 0.577469
5 *431:2 *431:4 1.44374
*END

*D_NET *432 0.00018544

*CONN
*I *821:Q O *C 61.11 66.15 *L 0 *D OR2JIX0
*I *811:B I *C 62.79 65.31 *L 0.00341 *D NA2JIX1

*CAP
1 *821:Q 9.272e-05
2 *811:B 9.272e-05

*RES
1 *821:Q *811:B 1.155
*END

*D_NET *433 0.00102192

*CONN
*I *820:Q O *C 74.13 32.55 *L 0 *D EO2JIX0
*I *804:B I *C 68.67 32.13 *L 0.00629 *D EO2JIX1

*CAP
1 *820:Q 5.28869e-05
2 *804:B 2.57784e-05
3 *433:2 8.31916e-05
4 *433:3 0.00040358
5 *433:4 8.16028e-05
6 *433:5 0.000374883

*RES
1 *433:4 *820:Q 0.577491
2 *433:4 *433:5 0.288768
3 *433:3 *433:5 2.88750005
4 *433:2 *433:3 0.577491
5 *804:B *433:2 0.288768
*END

*D_NET *434 0.00163016

*CONN
*I *819:Q O *C 80.43 57.33 *L 0 *D EO2JIX1
*I *813:A I *C 78.732 65.52 *L 0.00577 *D EO2JIX1

*CAP
1 *819:Q 2.87467e-05
2 *813:A 5.28485e-05
3 *434:2 0.000242877
4 *434:3 0.00053218
5 *434:4 0.00053218
6 *434:5 0.000241318

*RES
1 *434:4 *813:A 9
2 *434:3 *434:4 2.58714
3 *819:Q *434:5 0.288803
4 *434:2 *434:3 9
5 *434:2 *434:5 1.73254
*END

*D_NET *435 5.156e-05

*CONN
*I *818:Q O *C 66.57 64.89 *L 0 *D EO2JIX1
*I *810:B I *C 67.83 65.31 *L 0.00629 *D EO2JIX1

*CAP
1 *818:Q 2.578e-05
2 *810:B 2.578e-05

*RES
1 *818:Q *810:B 0.28875
*END

*D_NET *436 5.156e-05

*CONN
*I *817:Q O *C 57.33 34.65 *L 0 *D EO2JIX0
*I *807:B I *C 58.59 35.07 *L 0.00629 *D EO2JIX1

*CAP
1 *817:Q 2.578e-05
2 *807:B 2.578e-05

*RES
1 *817:Q *807:B 0.28875
*END

*D_NET *437 0.00157408

*CONN
*I *815:Q O *C 82.11 64.89 *L 0 *D INVJIX1
*I *814:A I *C 76.23 65.31 *L 0.0032 *D NA2JIX1
*I *813:B I *C 77.49 65.31 *L 0.00629 *D EO2JIX1

*CAP
1 *815:Q 2.57784e-05
2 *814:A 5.28471e-05
3 *813:B 7.83388e-05
4 *437:3 0.000140423
5 *437:4 7.27481e-05
6 *437:5 0.000144212
7 *437:6 7.65376e-05
8 *437:7 0.00011174
9 *437:8 0.00040846
10 *437:9 8.32813e-05
11 *437:10 0.000379709

*RES
1 *437:9 *815:Q 0.288803
2 *437:9 *437:10 0.577469
3 *437:8 *437:10 2.59882
4 *437:7 *437:8 0.866272
5 *813:B *437:7 0.288803
6 *437:6 *813:B 9
7 *437:4 *814:A 9
8 *437:5 *437:6 0.369553
9 *437:3 *437:4 0.369553
10 *437:3 *437:5 0.554398
*END

*D_NET *438 0.00065102

*CONN
*I *814:Q O *C 76.23 66.15 *L 0 *D NA2JIX1
*I *812:A I *C 74.13 65.31 *L 0.0032 *D NA2JIX1

*CAP
1 *814:Q 4.95301e-05
2 *812:A 5.75012e-05
3 *438:2 0.000160979
4 *438:3 0.00021848
5 *438:4 0.000164529

*RES
1 *438:4 *814:Q 0.5775
2 *438:3 *438:4 1.15499997
3 *438:2 *812:A 0.5775
4 *438:2 *438:3 0.86625
*END

*D_NET *439 0.0020611

*CONN
*I *812:Q O *C 74.13 66.15 *L 0 *D NA2JIX1
*I *811:A I *C 63.21 65.31 *L 0.0032 *D NA2JIX1
*I *810:A I *C 69.072 65.52 *L 0.00577 *D EO2JIX1

*CAP
1 *812:Q 4.95285e-05
2 *811:A 5.28476e-05
3 *810:A 5.28476e-05
4 *439:5 4.57085e-05
5 *439:6 0.000364698
6 *439:7 0.000115057
7 *439:8 0.000364698
8 *439:9 0.000383209
9 *439:10 0.000115057
10 *439:11 0.000107029
11 *439:12 0.0004104

*RES
1 *439:11 *812:Q 0.577469
2 *439:5 *811:A 9
3 *439:4 *439:5 0.256805
4 *439:11 *439:12 0.577469
5 *439:6 *439:5 9
6 *439:9 *439:12 2.88748
7 *439:6 *439:8 2.58714
8 *439:10 *439:9 9
9 *439:7 *810:A 9
10 *439:7 *439:8 9
11 *439:7 *439:10 0.739243
12 *439:3 *439:7 0.256805
*END

*D_NET *440 0.00075726

*CONN
*I *811:Q O *C 63.21 66.15 *L 0 *D NA2JIX1
*I *809:A I *C 61.95 62.37 *L 0.0032 *D NA2JIX1

*CAP
1 *811:Q 7.71907e-05
2 *809:A 5.28483e-05
3 *440:2 0.00025986
4 *440:3 0.000107501
5 *440:4 0.00025986

*RES
1 *440:3 *811:Q 0.866272
2 *440:4 *440:3 9
3 *440:2 *440:4 1.66319
4 *809:A *440:2 9
*END

*D_NET *441 0.00430553

*CONN
*I *809:Q O *C 61.95 61.53 *L 0 *D NA2JIX1
*I *808:A I *C 60.27 32.13 *L 0.0032 *D NA2JIX1
*I *807:A I *C 59.832 35.28 *L 0.00577 *D EO2JIX1

*CAP
1 *809:Q 3.86607e-05
2 *808:A 5.28576e-05
3 *807:A 5.28576e-05
4 *441:3 0.000110905
5 *441:4 0.000103384
6 *441:5 0.000132981
7 *441:6 0.000201276
8 *441:7 0.000339936
9 *441:8 0.000339936
10 *441:9 0.00123231
11 *441:10 0.00120172
12 *441:11 0.000215417
13 *441:12 7.51966e-05
14 *441:13 0.000208102

*RES
1 *441:12 *809:Q 0.577469
2 *441:13 *441:12 9
3 *441:11 *441:13 1.29364
4 *441:8 *441:11 0.184845
5 *441:7 *441:8 2.21759
6 *441:7 *441:10 0.184845
7 *441:5 *808:A 9
8 *441:9 *441:10 8.68565
9 *441:4 *807:A 9
10 *441:5 *441:6 0.739243
11 *441:6 *441:9 0.369553
12 *441:3 *441:4 0.554398
13 *441:3 *441:6 0.184845
*END

*D_NET *442 0.00046554

*CONN
*I *808:Q O *C 60.27 31.29 *L 0 *D NA2JIX1
*I *806:A I *C 62.37 32.13 *L 0.0032 *D NA2JIX1

*CAP
1 *808:Q 2.87088e-05
2 *806:A 5.74114e-05
3 *442:2 0.000175361
4 *442:3 0.00020406

*RES
1 *806:A *442:3 0.5775
2 *442:2 *442:3 1.15499997
3 *808:Q *442:2 0.28875
*END

*D_NET *443 0.00207569

*CONN
*I *806:Q O *C 62.37 31.29 *L 0 *D NA2JIX1
*I *805:A I *C 76.23 32.13 *L 0.0016 *D NA2JIX0
*I *804:A I *C 69.912 31.92 *L 0.00577 *D EO2JIX1

*CAP
1 *806:Q 5.28535e-05
2 *805:A 5.28535e-05
3 *804:A 5.28535e-05
4 *443:6 4.57067e-05
5 *443:7 9.4061e-05
6 *443:8 0.000101589
7 *443:9 0.000249089
8 *443:10 0.000172773
9 *443:11 0.000249089
10 *443:12 4.57067e-05
11 *443:13 0.00053223
12 *443:14 4.57067e-05
13 *443:15 0.000381182

*RES
1 *443:5 *443:6 0.256805
2 *443:6 *806:Q 9
3 *443:7 *443:6 9
4 *443:7 *443:8 0.554398
5 *443:8 *443:9 0.184845
6 *443:9 *443:11 1.47835
7 *443:12 *804:A 9
8 *443:4 *443:12 0.256805
9 *443:10 *443:11 0.184845
10 *443:13 *443:12 9
11 *443:10 *443:13 1.1088
12 *443:13 *443:15 2.77199
13 *443:14 *805:A 9
14 *443:14 *443:15 9
15 *443:3 *443:14 0.256805
*END

*D_NET *444 0.0003792

*CONN
*I *805:Q O *C 76.23 31.29 *L 0 *D NA2JIX0
*I *803:A I *C 77.91 32.13 *L 0.0032 *D NA2JIX1

*CAP
1 *805:Q 2.87091e-05
2 *803:A 5.74107e-05
3 *444:2 0.000132191
4 *444:3 0.00016089

*RES
1 *803:A *444:3 0.577504
2 *444:2 *444:3 0.866249979
3 *805:Q *444:2 0.288746
*END

*D_NET *445 0.00117027

*CONN
*I *855:Q O *C 99.75 84.21 *L 0 *D ON211JIX1
*I *841:A I *C 100.17 80.43 *L 0.0032 *D NA2JIX1

*CAP
1 *855:Q 5.28536e-05
2 *841:A 5.28536e-05
3 *445:2 6.00402e-05
4 *445:3 0.00050588
5 *445:4 0.000498647

*RES
1 *445:4 *855:Q 9
2 *445:3 *445:4 1.66319
3 *445:2 *445:3 0.184845
4 *841:A *445:2 9
*END

*D_NET *446 0.00084844

*CONN
*I *854:Q O *C 95.13 85.47 *L 0 *D AND2JIX0
*I *842:A I *C 93.87 80.43 *L 0.00377 *D EO3JIX0

*CAP
1 *854:Q 5.7411e-05
2 *842:A 5.28498e-05
3 *446:2 0.00022175
4 *446:3 0.000133791
5 *446:4 0.00022175
6 *446:5 0.000160891

*RES
1 *446:5 *854:Q 0.577469
2 *446:3 *446:5 0.866272
3 *446:4 *446:3 9
4 *446:2 *446:4 1.29364
5 *842:A *446:2 9
*END

*D_NET *447 0.0009978

*CONN
*I *853:Q O *C 110.67 70.35 *L 0 *D INVJIX1
*I *846:A I *C 109.83 72.87 *L 0.0016 *D NA2JIX0
*I *844:B I *C 110.67 72.87 *L 0.00629 *D EO2JIX1

*CAP
1 *853:Q 2.87507e-05
2 *846:A 5.75014e-05
3 *844:B 8.78101e-05
4 *447:3 0.000126491
5 *447:4 6.52801e-05
6 *447:5 0.00025274
7 *447:6 0.000126491
8 *447:7 0.00025274

*RES
1 *853:Q *447:4 0.288803
2 *447:5 *447:4 9
3 *447:5 *447:7 0.92395
4 *844:B *447:7 9
5 *447:6 *844:B 0.577469
6 *447:3 *846:A 0.577469
7 *447:3 *447:6 0.577469
*END

*D_NET *448 0.00096636

*CONN
*I *852:Q O *C 109.41 70.35 *L 0 *D INVJIX1
*I *846:B I *C 109.41 72.87 *L 0.00171 *D NA2JIX0
*I *844:A I *C 111.912 73.08 *L 0.00577 *D EO2JIX1

*CAP
1 *852:Q 5.28511e-05
2 *846:B 5.28511e-05
3 *844:A 5.28511e-05
4 *448:4 0.000181579
5 *448:5 0.000181579
6 *448:6 0.00019947
7 *448:7 4.57105e-05
8 *448:8 0.00019947

*RES
1 *448:4 *852:Q 9
2 *448:5 *846:B 9
3 *448:4 *448:5 1.1088
4 *448:6 *448:5 9
5 *448:6 *448:8 1.1088
6 *448:7 *844:A 9
7 *448:7 *448:8 9
8 *448:3 *448:7 0.256805
*END

*D_NET *449 0.00074536

*CONN
*I *851:Q O *C 106.89 69.09 *L 0 *D NA2JIX0
*I *838:B I *C 103.95 69.93 *L 0.00341 *D NA2JIX1

*CAP
1 *851:Q 2.87487e-05
2 *838:B 5.74975e-05
3 *449:2 0.00034393
4 *449:3 0.000315181

*RES
1 *851:Q *449:3 0.28875
2 *449:2 *449:3 2.30999994
3 *838:B *449:2 0.5775
*END

*D_NET *450 0.0006127

*CONN
*I *850:Q O *C 99.75 38.85 *L 0 *D OR2JIX0
*I *833:B I *C 99.75 42.63 *L 0.00164 *D AO22JIX0

*CAP
1 *850:Q 2.74606e-05
2 *833:B 5.285e-05
3 *450:2 5.62102e-05
4 *450:3 6.52797e-05
5 *450:4 5.24204e-05
6 *450:5 5.97409e-05
7 *450:6 0.00015303
8 *450:7 0.00014571

*RES
1 *450:7 *833:B 9
2 *450:6 *450:7 0.739243
3 *450:5 *450:6 0.184845
4 *450:4 *450:5 0.184845
5 *450:3 *450:4 9
6 *450:2 *450:3 0.288803
7 *450:2 *850:Q 0.288803
*END

*D_NET *451 0.0006798

*CONN
*I *849:Q O *C 105.63 51.03 *L 0 *D NA2JIX0
*I *835:B I *C 102.69 50.19 *L 0.00341 *D NA2JIX1

*CAP
1 *849:Q 2.87482e-05
2 *835:B 5.75011e-05
3 *451:2 0.00031115
4 *451:3 0.000282402

*RES
1 *451:3 *849:Q 0.28875
2 *451:2 *835:B 0.5775
3 *451:2 *451:3 2.30999994
*END

*D_NET *452 0.00015468

*CONN
*I *848:Q O *C 98.07 81.27 *L 0 *D NA2JIX0
*I *841:B I *C 99.75 80.43 *L 0.00341 *D NA2JIX1

*CAP
1 *848:Q 7.734e-05
2 *841:B 7.734e-05

*RES
1 *848:Q *841:B 0.86625
*END

*D_NET *453 0.00066746

*CONN
*I *847:Q O *C 105.63 53.97 *L 0 *D OR2JIX0
*I *837:B I *C 102.69 54.81 *L 0.00341 *D NA2JIX1

*CAP
1 *847:Q 2.87505e-05
2 *837:B 5.75011e-05
3 *453:2 0.00030498
4 *453:3 0.000276229

*RES
1 *847:Q *453:3 0.288741
2 *453:2 *453:3 2.02125001
3 *837:B *453:2 0.577513
*END

*D_NET *454 0.00101314

*CONN
*I *846:Q O *C 109.83 73.71 *L 0 *D NA2JIX0
*I *840:B I *C 103.95 72.87 *L 0.00171 *D NA2JIX0

*CAP
1 *846:Q 8.29883e-05
2 *840:B 8.39293e-05
3 *454:4 4.57108e-05
4 *454:5 0.000220849
5 *454:6 0.00022838
6 *454:7 9.99004e-05
7 *454:8 0.0001133
8 *454:9 4.57108e-05
9 *454:10 9.23696e-05

*RES
1 *454:4 *840:B 9
2 *454:3 *454:4 0.256805
3 *454:5 *454:4 9
4 *454:5 *454:6 1.29364
5 *454:6 *454:7 0.184845
6 *454:7 *454:10 0.739243
7 *454:8 *846:Q 0.866272
8 *454:9 *454:10 9
9 *454:9 *454:8 9
10 *454:2 *454:9 0.256805
*END

*D_NET *455 0.00103912

*CONN
*I *845:Q O *C 97.23 42.21 *L 0 *D EO2JIX0
*I *834:B I *C 91.77 42.63 *L 0.00629 *D EO2JIX1

*CAP
1 *845:Q 5.28899e-05
2 *834:B 5.75006e-05
3 *455:2 0.00043792
4 *455:3 0.000409173
5 *455:4 8.16368e-05

*RES
1 *455:4 *845:Q 0.577518
2 *455:3 *455:4 0.288759
3 *455:2 *834:B 0.577518
4 *455:2 *455:3 3.17624998
*END

*D_NET *456 0.00213865

*CONN
*I *844:Q O *C 112.77 72.45 *L 0 *D EO2JIX1
*I *839:B I *C 102.27 72.87 *L 0.00629 *D EO2JIX1

*CAP
1 *844:Q 2.87079e-05
2 *839:B 5.28526e-05
3 *456:3 7.08518e-05
4 *456:4 7.08518e-05
5 *456:5 0.000365859
6 *456:6 0.00057289
7 *456:7 4.57106e-05
8 *456:8 0.000365859
9 *456:9 0.000565066

*RES
1 *456:3 *839:B 9
2 *456:3 *456:4 0.554398
3 *456:5 *456:4 9
4 *844:Q *456:9 0.288803
5 *456:5 *456:8 2.21759
6 *456:6 *456:9 4.33122
7 *456:7 *456:8 9
8 *456:7 *456:6 9
9 *456:2 *456:7 0.256805
*END

*D_NET *457 0.00172237

*CONN
*I *843:Q O *C 111.51 55.23 *L 0 *D EO2JIX0
*I *836:B I *C 101.01 54.81 *L 0.00629 *D EO2JIX1

*CAP
1 *843:Q 5.28553e-05
2 *836:B 5.28553e-05
3 *457:4 6.93555e-05
4 *457:5 6.93555e-05
5 *457:6 0.00071612
6 *457:7 4.57089e-05
7 *457:8 0.00071612

*RES
1 *457:4 *836:B 9
2 *457:3 *457:4 0.0811615
3 *457:4 *457:5 0.184845
4 *457:6 *457:5 9
5 *457:6 *457:8 4.62003
6 *457:7 *457:8 9
7 *457:7 *843:Q 9
8 *457:2 *457:7 0.256805
*END

*D_NET *458 0.00177539

*CONN
*I *841:Q O *C 100.17 81.27 *L 0 *D NA2JIX1
*I *840:A I *C 104.37 72.87 *L 0.0016 *D NA2JIX0
*I *839:A I *C 101.028 73.08 *L 0.00577 *D EO2JIX1

*CAP
1 *841:Q 2.87105e-05
2 *840:A 5.2848e-05
3 *839:A 5.2848e-05
4 *458:4 0.0002752
5 *458:5 6.52401e-05
6 *458:6 0.000267969
7 *458:7 4.58982e-05
8 *458:8 0.000226068
9 *458:9 7.03212e-05
10 *458:10 0.000201591
11 *458:11 0.000186331
12 *458:12 7.78505e-05
13 *458:13 4.57092e-05
14 *458:14 0.000178801

*RES
1 *458:5 *841:Q 0.288803
2 *458:6 *458:5 9
3 *458:4 *458:6 1.66319
4 *458:7 *839:A 9
5 *458:4 *458:10 0.184845
6 *458:7 *458:8 0.184845
7 *458:8 *458:10 1.1088
8 *458:9 *458:8 9
9 *458:9 *458:12 0.369553
10 *458:11 *458:12 0.184845
11 *458:11 *458:14 1.1088
12 *458:13 *840:A 9
13 *458:13 *458:14 9
14 *458:3 *458:13 0.0439453
*END

*D_NET *459 0.00054072

*CONN
*I *840:Q O *C 104.37 73.71 *L 0 *D NA2JIX0
*I *838:A I *C 104.37 69.93 *L 0.0032 *D NA2JIX1

*CAP
1 *840:Q 2.8751e-05
2 *838:A 5.28499e-05
3 *459:2 0.00016453
4 *459:3 6.58095e-05
5 *459:4 0.00016453
6 *459:5 6.42504e-05

*RES
1 *459:5 *840:Q 0.288803
2 *459:3 *459:5 0.288803
3 *459:4 *459:3 9
4 *459:2 *459:4 0.92395
5 *838:A *459:2 9
*END

*D_NET *460 0.00304311

*CONN
*I *838:Q O *C 104.37 69.09 *L 0 *D NA2JIX1
*I *837:A I *C 103.11 54.81 *L 0.0032 *D NA2JIX1
*I *836:A I *C 99.768 54.6 *L 0.00577 *D EO2JIX1

*CAP
1 *838:Q 5.2853e-05
2 *837:A 5.2853e-05
3 *836:A 5.74974e-05
4 *460:3 0.000273103
5 *460:4 0.000245909
6 *460:5 5.30363e-05
7 *460:6 0.000184248
8 *460:7 0.000146749
9 *460:8 0.000154182
10 *460:9 7.62813e-05
11 *460:10 8.35992e-05
12 *460:11 6.01328e-05
13 *460:12 0.000161271
14 *460:13 0.000223749
15 *460:14 0.000216431
16 *460:15 0.00050061
17 *460:16 0.00050061

*RES
1 *460:14 *838:Q 9
2 *460:13 *460:14 1.47835
3 *460:13 *460:16 0.184845
4 *460:15 *460:16 3.32639
5 *460:11 *460:15 0.184845
6 *460:12 *460:11 9
7 *460:9 *837:A 9
8 *460:8 *460:12 0.92395
9 *460:9 *460:10 0.369553
10 *460:7 *460:8 9
11 *460:6 *460:10 0.184845
12 *460:6 *460:7 1.1088
13 *460:5 *460:6 0.184845
14 *460:4 *460:5 9
15 *460:3 *460:4 1.73254
16 *836:A *460:3 0.577469
*END

*D_NET *461 0.00059842

*CONN
*I *837:Q O *C 103.11 53.97 *L 0 *D NA2JIX1
*I *835:A I *C 103.11 50.19 *L 0.0032 *D NA2JIX1

*CAP
1 *837:Q 2.87488e-05
2 *835:A 5.28502e-05
3 *461:2 0.00022577
4 *461:3 6.52799e-05
5 *461:4 0.00022577

*RES
1 *461:3 *837:Q 0.288803
2 *461:4 *461:3 9
3 *461:2 *461:4 1.47835
4 *835:A *461:2 9
*END

*D_NET *462 0.00346574

*CONN
*I *835:Q O *C 103.11 51.03 *L 0 *D NA2JIX1
*I *834:A I *C 93.012 42.84 *L 0.00577 *D EO2JIX1
*I *833:A I *C 100.17 42.63 *L 0.00158 *D AO22JIX0

*CAP
1 *835:Q 0.00013693
2 *834:A 8.39339e-05
3 *833:A 5.28515e-05
4 *462:3 0.000128708
5 *462:4 7.27455e-05
6 *462:5 0.00067517
7 *462:6 0.000104364
8 *462:7 0.000256046
9 *462:8 0.00067517
10 *462:9 0.00020337
11 *462:10 0.000473345
12 *462:11 0.000167239
13 *462:12 0.000435865

*RES
1 *462:11 *835:Q 1.44374
2 *462:12 *462:11 9
3 *462:10 *462:12 2.21759
4 *462:6 *833:A 9
5 *462:9 *462:10 0.369553
6 *462:6 *462:7 0.554398
7 *462:7 *462:9 0.92395
8 *462:8 *462:7 9
9 *462:5 *462:8 3.14154
10 *462:4 *462:5 9
11 *462:3 *462:4 0.369553
12 *834:A *462:3 9
*END

*D_NET *463 0.00080754

*CONN
*I *893:Q O *C 71.61 69.09 *L 0 *D NA2I1JIX1
*I *869:B I *C 71.61 65.31 *L 0.00341 *D NA2JIX1

*CAP
1 *893:Q 5.28503e-05
2 *869:B 8.39274e-05
3 *463:2 0.00036336
4 *463:3 0.000307399

*RES
1 *463:3 *893:Q 9
2 *463:2 *463:3 1.47835
3 *869:B *463:2 9
*END

*D_NET *464 0.00036742

*CONN
*I *892:Q O *C 74.97 69.09 *L 0 *D NA2I1JIX1
*I *871:A I *C 76.65 69.93 *L 0.0032 *D NA2JIX1

*CAP
1 *892:Q 2.64491e-05
2 *871:A 5.75006e-05
3 *464:2 5.52004e-05
4 *464:3 9.97607e-05
5 *464:4 0.00012851

*RES
1 *871:A *464:4 0.577499986
2 *464:3 *464:4 0.577499986
3 *464:2 *464:3 0.28875
4 *892:Q *464:2 0.28875
*END

*D_NET *465 0.00077718

*CONN
*I *891:Q O *C 67.83 58.59 *L 0 *D INVJIX0
*I *880:B I *C 70.77 57.75 *L 0.00344 *D NA2I1JIX1

*CAP
1 *891:Q 5.75013e-05
2 *880:B 5.28486e-05
3 *465:2 0.00026936
4 *465:3 0.000242171
5 *465:4 7.76493e-05
6 *465:5 7.76493e-05

*RES
1 *465:5 *880:B 9
2 *465:4 *465:5 0.369553
3 *465:3 *465:4 9
4 *465:2 *465:3 2.02121
5 *465:2 *891:Q 0.577469
*END

*D_NET *466 0.00044206

*CONN
*I *890:Q O *C 72.45 35.91 *L 0 *D INVJIX0
*I *879:A I *C 70.77 35.07 *L 0.0016 *D NA2JIX0

*CAP
1 *890:Q 5.74112e-05
2 *879:A 5.74112e-05
3 *466:2 0.00016362
4 *466:3 0.00016362

*RES
1 *466:3 *890:Q 0.5775
2 *466:2 *879:A 0.5775
3 *466:2 *466:3 1.15499997
*END

*D_NET *467 0.00054594

*CONN
*I *889:Q O *C 69.09 38.85 *L 0 *D INVJIX0
*I *878:B I *C 70.35 39.69 *L 0.00344 *D NA2I1JIX1

*CAP
1 *889:Q 5.74992e-05
2 *878:B 5.28505e-05
3 *467:2 0.00016283
4 *467:3 6.85608e-05
5 *467:4 0.000135641
6 *467:5 6.85608e-05

*RES
1 *467:3 *878:B 9
2 *467:3 *467:5 0.369553
3 *467:4 *467:5 9
4 *467:2 *467:4 0.866272
5 *889:Q *467:2 0.577469
*END

*D_NET *468 0.00010308

*CONN
*I *888:Q O *C 69.51 35.91 *L 0 *D INVJIX0
*I *879:B I *C 70.35 35.07 *L 0.00171 *D NA2JIX0

*CAP
1 *888:Q 5.154e-05
2 *879:B 5.154e-05

*RES
1 *888:Q *879:B 0.5775
*END

*D_NET *469 0.00049502

*CONN
*I *892:B I *C 74.55 69.93 *L 0.00344 *D NA2I1JIX1
*I *887:Q O *C 73.29 70.35 *L 0 *D INVJIX1

*CAP
1 *892:B 5.28505e-05
2 *887:Q 2.87505e-05
3 *469:2 0.00013223
4 *469:3 7.37004e-05
5 *469:4 0.00013379
6 *469:5 7.37004e-05

*RES
1 *469:3 *892:B 9
2 *469:3 *469:5 0.369553
3 *469:4 *469:5 9
4 *469:2 *469:4 0.866272
5 *887:Q *469:2 0.288803
*END

*D_NET *470 0.00010308

*CONN
*I *893:AN I *C 70.35 69.51 *L 0.00163 *D NA2I1JIX1
*I *886:Q O *C 69.51 70.35 *L 0 *D INVJIX1

*CAP
1 *893:AN 5.154e-05
2 *886:Q 5.154e-05

*RES
1 *886:Q *893:AN 0.5775
*END

*D_NET *471 0.00116046

*CONN
*I *885:Q O *C 80.85 32.55 *L 0 *D AND2JIX0
*I *857:AN I *C 85.05 31.71 *L 0.00163 *D NA2I1JIX1

*CAP
1 *885:Q 5.28517e-05
2 *857:AN 5.28517e-05
3 *471:2 0.0003555
4 *471:3 7.98824e-05
5 *471:4 7.98824e-05
6 *471:5 0.0003555
7 *471:6 9.20009e-05
8 *471:7 9.20009e-05

*RES
1 *471:7 *857:AN 9
2 *471:6 *471:7 0.554398
3 *471:4 *885:Q 9
4 *471:5 *471:6 9
5 *471:3 *471:4 0.369553
6 *471:2 *471:5 2.88748
7 *471:2 *471:3 9
*END

*D_NET *472 0.00043662

*CONN
*I *884:Q O *C 73.71 35.91 *L 0 *D NA2JIX0
*I *860:B I *C 76.65 35.07 *L 0.00341 *D NA2JIX1

*CAP
1 *884:Q 2.766e-05
2 *860:B 2.57797e-05
3 *472:2 5.63692e-05
4 *472:3 0.000107459
5 *472:4 8.31898e-05
6 *472:5 0.00013616

*RES
1 *472:4 *860:B 0.28875
2 *472:4 *472:5 0.5775
3 *472:3 *472:5 1.15499997
4 *472:2 *472:3 0.28875
5 *884:Q *472:2 0.28875
*END

*D_NET *473 0.0007851

*CONN
*I *883:Q O *C 69.09 58.59 *L 0 *D NA2JIX0
*I *866:B I *C 74.13 57.75 *L 0.00341 *D NA2JIX1

*CAP
1 *883:Q 2.87499e-05
2 *866:B 2.5779e-05
3 *473:2 0.00030927
4 *473:3 8.32787e-05
5 *473:4 0.00033802

*RES
1 *473:3 *866:B 0.288768
2 *473:3 *473:4 0.577491
3 *473:2 *473:4 2.88750005
4 *883:Q *473:2 0.288768
*END

*D_NET *474 0.00142635

*CONN
*I *882:Q O *C 66.99 43.47 *L 0 *D NA2JIX0
*I *863:B I *C 74.55 42.63 *L 0.00341 *D NA2JIX1

*CAP
1 *882:Q 2.74571e-05
2 *863:B 5.58915e-05
3 *474:2 0.000449528
4 *474:3 5.62081e-05
5 *474:4 0.00045109
6 *474:5 9.03006e-05
7 *474:6 0.00012047
8 *474:7 9.24206e-05
9 *474:8 8.29769e-05

*RES
1 *474:7 *863:B 0.577469
2 *474:8 *474:7 9
3 *474:6 *474:8 0.369553
4 *474:5 *474:6 0.369553
5 *474:4 *474:5 9
6 *474:2 *474:4 3.46495
7 *474:2 *474:3 0.288803
8 *882:Q *474:3 0.288803
*END

*D_NET *475 0.00010308

*CONN
*I *881:Q O *C 82.95 31.29 *L 0 *D OR2JIX0
*I *859:B I *C 83.79 32.13 *L 0.00171 *D NA2JIX0

*CAP
1 *881:Q 5.154e-05
2 *859:B 5.154e-05

*RES
1 *881:Q *859:B 0.5775
*END

*D_NET *476 0.00010308

*CONN
*I *880:Q O *C 71.19 58.59 *L 0 *D NA2I1JIX1
*I *868:B I *C 72.45 57.75 *L 0.00341 *D NA2JIX1

*CAP
1 *880:Q 5.154e-05
2 *868:B 5.154e-05

*RES
1 *880:Q *868:B 0.5775
*END

*D_NET *477 0.0011595

*CONN
*I *879:Q O *C 70.77 35.91 *L 0 *D NA2JIX0
*I *862:B I *C 74.97 35.07 *L 0.00341 *D NA2JIX1

*CAP
1 *879:Q 5.74089e-05
2 *862:B 8.39325e-05
3 *477:2 0.00039211
4 *477:3 0.000158501
5 *477:4 0.000365012
6 *477:5 0.00010254

*RES
1 *477:3 *862:B 9
2 *477:3 *477:5 0.554398
3 *477:4 *477:5 9
4 *477:2 *477:4 2.59882
5 *879:Q *477:2 0.577469
*END

*D_NET *478 0.00051252

*CONN
*I *878:Q O *C 70.77 38.85 *L 0 *D NA2I1JIX1
*I *865:B I *C 72.45 42.63 *L 0.00341 *D NA2JIX1

*CAP
1 *878:Q 8.19208e-05
2 *865:B 5.28492e-05
3 *478:2 0.000118451
4 *478:3 0.00012965
5 *478:4 0.00012965

*RES
1 *478:4 *865:B 9
2 *478:3 *478:4 1.1088
3 *478:2 *478:3 9
4 *878:Q *478:2 0.866272
*END

*D_NET *479 0.00042414

*CONN
*I *877:Q O *C 79.59 70.35 *L 0 *D EO2JIX1
*I *870:A I *C 82.092 69.72 *L 0.00577 *D EO2JIX1

*CAP
1 *877:Q 5.68303e-05
2 *870:A 5.75e-05
3 *479:2 8.55793e-05
4 *479:3 9.7741e-05
5 *479:4 0.00012649

*RES
1 *870:A *479:4 0.577499986
2 *479:3 *479:4 0.577499986
3 *479:2 *479:3 0.28875
4 *877:Q *479:2 0.577499986
*END

*D_NET *480 5.156e-05

*CONN
*I *876:Q O *C 68.67 62.79 *L 0 *D EO2JIX1
*I *867:B I *C 69.93 62.37 *L 0.00629 *D EO2JIX1

*CAP
1 *876:Q 2.578e-05
2 *867:B 2.578e-05

*RES
1 *876:Q *867:B 0.28875
*END

*D_NET *481 0.00096908

*CONN
*I *875:Q O *C 70.77 42.21 *L 0 *D EO2JIX1
*I *864:B I *C 74.13 47.25 *L 0.00629 *D EO2JIX1

*CAP
1 *875:Q 0.000110558
2 *864:B 5.58917e-05
3 *481:2 0.000140871
4 *481:3 0.00028778
5 *481:4 8.62001e-05
6 *481:5 0.00028778

*RES
1 *481:4 *864:B 0.577469
2 *481:5 *481:4 9
3 *481:3 *481:5 1.29364
4 *481:2 *481:3 9
5 *875:Q *481:2 1.15494
*END

*D_NET *482 0.0005199

*CONN
*I *874:Q O *C 74.13 40.11 *L 0 *D EO2JIX1
*I *861:A I *C 77.052 39.48 *L 0.00577 *D EO2JIX1

*CAP
1 *874:Q 2.87487e-05
2 *861:A 5.7501e-05
3 *482:2 0.000202451
4 *482:3 0.0002312

*RES
1 *861:A *482:3 0.577491
2 *482:2 *482:3 1.44375002
3 *874:Q *482:2 0.288746
*END

*D_NET *483 5.532e-05

*CONN
*I *873:Q O *C 80.01 34.65 *L 0 *D EO2JIX0
*I *858:B I *C 81.27 35.07 *L 0.00629 *D EO2JIX1

*CAP
1 *873:Q 2.766e-05
2 *858:B 2.766e-05

*RES
1 *873:Q *858:B 0.28875
*END

*D_NET *484 0.00191978

*CONN
*I *872:CO O *C 78.75 72.45 *L 0 *D HAJIX1
*I *871:B I *C 76.23 69.93 *L 0.00341 *D NA2JIX1
*I *870:B I *C 80.85 69.93 *L 0.00629 *D EO2JIX1

*CAP
1 *872:CO 5.28476e-05
2 *871:B 2.47689e-05
3 *870:B 8.625e-05
4 *484:3 0.000396479
5 *484:4 0.000111019
6 *484:5 0.000119689
7 *484:6 8.21979e-05
8 *484:7 0.00039873
9 *484:8 0.000221661
10 *484:9 0.000259152
11 *484:10 0.000166982

*RES
1 *484:6 *872:CO 9
2 *484:5 *484:6 0.554398
3 *484:5 *484:9 0.369553
4 *484:10 *870:B 0.866272
5 *484:8 *484:9 1.29364
6 *484:4 *871:B 0.288803
7 *484:7 *484:10 0.866272
8 *484:7 *484:8 9
9 *484:3 *484:4 0.866272
10 *484:3 *484:7 2.59882
*END

*D_NET *485 0.00145314

*CONN
*I *871:Q O *C 76.65 69.09 *L 0 *D NA2JIX1
*I *869:A I *C 72.03 65.31 *L 0.0032 *D NA2JIX1

*CAP
1 *871:Q 2.71384e-05
2 *869:A 5.28492e-05
3 *485:2 0.00030877
4 *485:3 0.00030877
5 *485:4 0.00027872
6 *485:5 7.0362e-05
7 *485:6 0.00027872
8 *485:7 5.74477e-05
9 *485:8 7.0362e-05

*RES
1 *485:7 *871:Q 0.288803
2 *485:8 *485:7 9
3 *485:5 *485:8 0.369553
4 *485:6 *485:5 9
5 *485:4 *485:6 1.84804
6 *485:3 *485:4 9
7 *485:2 *485:3 1.29364
8 *869:A *485:2 9
*END

*D_NET *486 0.00152786

*CONN
*I *869:Q O *C 72.03 66.15 *L 0 *D NA2JIX1
*I *868:A I *C 72.87 57.75 *L 0.0032 *D NA2JIX1
*I *867:A I *C 71.172 62.16 *L 0.00577 *D EO2JIX1

*CAP
1 *869:Q 2.87497e-05
2 *868:A 5.28519e-05
3 *867:A 5.28519e-05
4 *486:3 0.000235351
5 *486:4 0.00033543
6 *486:5 0.000133788
7 *486:6 0.000151759
8 *486:7 0.000114722
9 *486:8 0.000114722
10 *486:9 0.000132232
11 *486:10 6.89593e-05
12 *486:11 0.000106451

*RES
1 *486:10 *868:A 9
2 *486:9 *869:Q 0.288803
3 *486:10 *486:11 0.369553
4 *486:5 *486:9 0.866272
5 *486:7 *486:11 0.369553
6 *486:6 *486:5 9
7 *486:7 *486:8 0.369553
8 *486:4 *867:A 9
9 *486:4 *486:6 0.92395
10 *486:3 *486:8 0.369553
11 *486:3 *486:4 1.29364
*END

*D_NET *487 0.00033396

*CONN
*I *868:Q O *C 72.87 58.59 *L 0 *D NA2JIX1
*I *866:A I *C 74.55 57.75 *L 0.0032 *D NA2JIX1

*CAP
1 *868:Q 2.87491e-05
2 *866:A 5.75004e-05
3 *487:2 0.000109481
4 *487:3 0.00013823

*RES
1 *487:3 *866:A 0.577504
2 *487:2 *487:3 0.866249979
3 *487:2 *868:Q 0.288746
*END

*D_NET *488 0.00398992

*CONN
*I *866:Q O *C 74.55 58.59 *L 0 *D NA2JIX1
*I *865:A I *C 72.87 42.63 *L 0.0032 *D NA2JIX1
*I *864:A I *C 75.372 47.04 *L 0.00577 *D EO2JIX1

*CAP
1 *866:Q 2.87442e-05
2 *865:A 5.28494e-05
3 *864:A 5.75031e-05
4 *488:3 9.76834e-05
5 *488:4 0.000382366
6 *488:5 0.000389045
7 *488:6 0.000245853
8 *488:7 0.000104363
9 *488:8 0.000132226
10 *488:9 0.000342024
11 *488:10 9.92982e-05
12 *488:11 0.00096208
13 *488:12 0.000133797
14 *488:13 0.00096208

*RES
1 *488:8 *866:Q 0.288803
2 *488:8 *488:12 0.866272
3 *488:13 *488:12 9
4 *488:11 *488:13 3.88078
5 *488:10 *488:11 9
6 *864:A *488:9 0.577469
7 *488:9 *488:10 0.577469
8 *488:6 *488:9 1.73254
9 *488:7 *488:6 9
10 *488:5 *488:7 0.554398
11 *488:4 *488:5 1.29364
12 *488:3 *488:4 0.554398
13 *865:A *488:3 9
*END

*D_NET *489 0.00042696

*CONN
*I *865:Q O *C 72.87 43.47 *L 0 *D NA2JIX1
*I *863:A I *C 74.97 42.63 *L 0.0032 *D NA2JIX1

*CAP
1 *865:Q 2.87489e-05
2 *863:A 5.75007e-05
3 *489:2 0.000155981
4 *489:3 0.00018473

*RES
1 *489:3 *863:A 0.5775
2 *489:2 *489:3 1.15499997
3 *489:2 *865:Q 0.28875
*END

*D_NET *490 0.00134236

*CONN
*I *863:Q O *C 74.97 43.47 *L 0 *D NA2JIX1
*I *862:A I *C 75.39 35.07 *L 0.0032 *D NA2JIX1
*I *861:B I *C 75.81 39.69 *L 0.00629 *D EO2JIX1

*CAP
1 *863:Q 2.64522e-05
2 *862:A 5.28508e-05
3 *861:B 5.28508e-05
4 *490:3 9.15921e-05
5 *490:4 9.91221e-05
6 *490:5 0.000289823
7 *490:6 0.00043865
8 *490:7 6.52804e-05
9 *490:8 0.000170547
10 *490:9 5.52002e-05

*RES
1 *863:Q *490:9 0.288803
2 *490:7 *490:9 0.288803
3 *490:8 *490:7 9
4 *490:6 *861:B 9
5 *490:6 *490:8 0.92395
6 *490:5 *490:6 1.66319
7 *490:4 *490:5 0.184845
8 *490:3 *490:4 0.369553
9 *862:A *490:3 9
*END

*D_NET *491 0.00033664

*CONN
*I *862:Q O *C 75.39 35.91 *L 0 *D NA2JIX1
*I *860:A I *C 77.07 35.07 *L 0.0032 *D NA2JIX1

*CAP
1 *862:Q 2.87102e-05
2 *860:A 5.74098e-05
3 *491:2 0.00011091
4 *491:3 0.00013961

*RES
1 *491:3 *860:A 0.577504
2 *491:2 *491:3 0.866249979
3 *491:2 *862:Q 0.288746
*END

*D_NET *492 0.00152194

*CONN
*I *860:Q O *C 77.07 35.91 *L 0 *D NA2JIX1
*I *859:A I *C 84.21 32.13 *L 0.0016 *D NA2JIX0
*I *858:A I *C 82.512 35.28 *L 0.00577 *D EO2JIX1

*CAP
1 *860:Q 2.37606e-05
2 *859:A 5.2852e-05
3 *858:A 5.74068e-05
4 *492:3 0.000386091
5 *492:4 5.24725e-05
6 *492:5 0.00055277
7 *492:6 0.000114147
8 *492:7 0.00016829
9 *492:8 0.000114147

*RES
1 *492:6 *859:A 9
2 *492:6 *492:8 0.92395
3 *492:7 *492:8 9
4 *492:5 *492:7 1.15494
5 *492:5 *858:A 0.577469
6 *492:3 *492:5 3.17628
7 *492:3 *492:4 0.288803
8 *860:Q *492:4 0.288803
*END

*D_NET *493 0.00049304

*CONN
*I *859:Q O *C 84.21 31.29 *L 0 *D NA2JIX0
*I *857:B I *C 85.89 32.13 *L 0.00344 *D NA2I1JIX1

*CAP
1 *859:Q 2.87097e-05
2 *857:B 5.28505e-05
3 *493:2 0.000132189
4 *493:3 7.2749e-05
5 *493:4 0.00013379
6 *493:5 7.2749e-05

*RES
1 *493:3 *857:B 9
2 *493:3 *493:5 0.369553
3 *493:4 *493:5 9
4 *493:2 *493:4 0.866272
5 *859:Q *493:2 0.288803
*END

*D_NET *494 0.00258908

*CONN
*I *910:Q O *C 95.55 66.15 *L 0 *D ON21JIX1
*I *909:B I *C 90.93 57.75 *L 0.00629 *D EO2JIX1
*I *904:C I *C 93.45 54.81 *L 0.0032 *D ON21JIX1

*CAP
1 *910:Q 2.87523e-05
2 *909:B 2.57813e-05
3 *904:C 5.2849e-05
4 *494:3 8.32806e-05
5 *494:4 0.000261328
6 *494:5 0.000198661
7 *494:6 0.000205981
8 *494:7 0.000201831
9 *494:8 0.000234141
10 *494:9 0.00035273
11 *494:10 0.000179732
12 *494:11 0.000252662
13 *494:12 0.000133788
14 *494:13 0.000245342
15 *494:14 0.000132227

*RES
1 *494:14 *910:Q 0.288803
2 *494:12 *494:14 0.866272
3 *494:5 *904:C 9
4 *494:13 *494:12 9
5 *494:5 *494:6 0.739243
6 *494:11 *494:13 1.47835
7 *494:6 *494:7 0.184845
8 *494:10 *494:11 0.184845
9 *494:7 *494:9 1.1088
10 *494:9 *494:10 0.92395
11 *494:8 *494:9 9
12 *494:4 *494:8 1.73254
13 *494:3 *494:4 0.577469
14 *909:B *494:3 0.288803
*END

*D_NET *495 0.0006601

*CONN
*I *913:Q O *C 98.49 66.15 *L 0 *D NA2JIX1
*I *910:C I *C 95.55 65.31 *L 0.0032 *D ON21JIX1

*CAP
1 *913:Q 5.19596e-05
2 *910:C 5.28496e-05
3 *495:2 9.44098e-05
4 *495:3 0.00014366
5 *495:4 9.44098e-05
6 *495:5 8.07091e-05
7 *495:6 0.000142099

*RES
1 *495:5 *913:Q 0.577469
2 *495:5 *495:6 0.288803
3 *495:3 *495:6 1.44374
4 *495:4 *495:3 9
5 *495:2 *495:4 0.554398
6 *910:C *495:2 9
*END

*D_NET *496 0.00054056

*CONN
*I *912:Q O *C 100.17 64.89 *L 0 *D NO2JIX1
*I *910:A I *C 97.23 65.31 *L 0.00331 *D ON21JIX1

*CAP
1 *912:Q 4.20202e-05
2 *910:A 2.57805e-05
3 *496:2 0.00017373
4 *496:3 8.32796e-05
5 *496:4 0.00014498
6 *496:5 7.07698e-05

*RES
1 *496:5 *912:Q 0.5775
2 *496:4 *496:5 0.28875
3 *496:2 *496:4 1.15499997
4 *496:2 *496:3 0.5775
5 *910:A *496:3 0.28875
*END

*D_NET *497 0.0008619

*CONN
*I *911:Q O *C 95.97 57.33 *L 0 *D EO2JIX1
*I *909:A I *C 89.688 57.96 *L 0.00577 *D EO2JIX1

*CAP
1 *911:Q 2.47704e-05
2 *909:A 5.75e-05
3 *497:2 0.00037743
4 *497:3 0.00034868
5 *497:4 5.35204e-05

*RES
1 *497:4 *911:Q 0.288732
2 *497:3 *497:4 0.288732
3 *497:2 *909:A 0.577518
4 *497:2 *497:3 3.46499991
*END

*D_NET *498 0.00159274

*CONN
*I *908:C I *C 90.09 42.63 *L 0.0017 *D NA3I1JIX0
*I *907:Q O *C 87.15 46.41 *L 0 *D NA2JIX0
*I *900:B I *C 87.57 42.63 *L 0.00171 *D NA2JIX0

*CAP
1 *908:C 5.28497e-05
2 *907:Q 5.28497e-05
3 *900:B 8.39319e-05
4 *498:3 0.000161809
5 *498:4 0.0002449
6 *498:5 0.00026739
7 *498:6 0.00017573
8 *498:7 0.000154191
9 *498:8 0.0002449
10 *498:9 0.000154191

*RES
1 *498:7 *908:C 9
2 *498:7 *498:9 0.554398
3 *498:8 *498:9 9
4 *498:4 *498:8 1.73254
5 *498:6 *907:Q 9
6 *498:5 *498:4 9
7 *498:5 *498:6 0.92395
8 *498:3 *498:5 0.554398
9 *900:B *498:3 9
*END

*D_NET *499 0.00081948

*CONN
*I *906:Q O *C 96.39 53.97 *L 0 *D NA2JIX0
*I *903:B I *C 92.19 54.81 *L 0.00341 *D NA2JIX1

*CAP
1 *906:Q 5.28486e-05
2 *903:B 5.28486e-05
3 *499:4 4.57119e-05
4 *499:5 0.00031118
5 *499:6 4.57119e-05
6 *499:7 0.00031118

*RES
1 *499:4 *903:B 9
2 *499:3 *499:4 0.256805
3 *499:5 *499:4 9
4 *499:5 *499:7 2.03275
5 *499:6 *499:7 9
6 *499:6 *906:Q 9
7 *499:2 *499:6 0.256805
*END

*D_NET *500 5.428e-05

*CONN
*I *905:Q O *C 83.79 49.77 *L 0 *D EO2JIX1
*I *901:B I *C 85.05 50.19 *L 0.00629 *D EO2JIX1

*CAP
1 *905:Q 2.714e-05
2 *901:B 2.714e-05

*RES
1 *905:Q *901:B 0.28875
*END

*D_NET *501 0.00031538

*CONN
*I *904:Q O *C 93.45 53.97 *L 0 *D ON21JIX1
*I *903:A I *C 92.61 54.81 *L 0.0032 *D NA2JIX1

*CAP
1 *904:Q 2.87491e-05
2 *903:A 5.75001e-05
3 *501:2 0.00012894
4 *501:3 0.000100191

*RES
1 *904:Q *501:3 0.28875
2 *501:2 *501:3 0.577499986
3 *903:A *501:2 0.577499986
*END

*D_NET *502 0.00252624

*CONN
*I *903:Q O *C 92.61 53.97 *L 0 *D NA2JIX1
*I *902:C I *C 88.83 47.25 *L 0.0032 *D ON21JIX1
*I *901:A I *C 86.292 50.4 *L 0.00577 *D EO2JIX1

*CAP
1 *903:Q 5.74982e-05
2 *902:C 5.24158e-05
3 *901:A 5.28543e-05
4 *502:3 0.00018112
5 *502:4 0.000154858
6 *502:5 0.000352174
7 *502:6 0.000565416
8 *502:7 0.000211498
9 *502:8 0.000109923
10 *502:9 0.000202094
11 *502:10 0.00058639

*RES
1 *502:10 *903:Q 0.577469
2 *502:6 *502:10 4.33122
3 *502:7 *502:6 9
4 *502:8 *902:C 0.577469
5 *502:5 *901:A 9
6 *502:5 *502:7 1.29364
7 *502:8 *502:9 0.577469
8 *502:4 *502:5 0.92395
9 *502:3 *502:9 1.15494
10 *502:3 *502:4 9
*END

*D_NET *503 0.00143872

*CONN
*I *908:B I *C 90.51 42.63 *L 0.00168 *D NA3I1JIX0
*I *902:Q O *C 88.83 46.41 *L 0 *D ON21JIX1
*I *900:A I *C 87.99 42.63 *L 0.0016 *D NA2JIX0

*CAP
1 *908:B 5.28505e-05
2 *902:Q 5.82909e-05
3 *900:A 5.28505e-05
4 *503:3 4.59019e-05
5 *503:4 5.32186e-05
6 *503:5 0.00023473
7 *503:6 5.98485e-05
8 *503:7 0.000227409
9 *503:8 0.00029417
10 *503:9 6.52798e-05
11 *503:10 0.00029417

*RES
1 *503:8 *908:B 9
2 *503:8 *503:10 1.29364
3 *503:9 *503:10 9
4 *503:9 *902:Q 0.288803
5 *503:6 *902:Q 0.288803
6 *503:7 *503:6 9
7 *503:5 *503:7 1.47835
8 *503:4 *503:5 0.184845
9 *503:3 *503:4 0.184845
10 *900:A *503:3 9
*END

*D_NET *504 0.00077552

*CONN
*I *900:Q O *C 87.99 43.47 *L 0 *D NA2JIX0
*I *899:A I *C 89.25 39.69 *L 0.0016 *D NA2JIX0

*CAP
1 *900:Q 2.74585e-05
2 *899:A 5.28513e-05
3 *504:2 6.75712e-05
4 *504:3 5.62084e-05
5 *504:4 0.00025115
6 *504:5 6.91309e-05
7 *504:6 0.00025115

*RES
1 *504:4 *899:A 9
2 *504:4 *504:6 0.92395
3 *504:5 *504:6 9
4 *504:2 *504:5 0.288803
5 *504:2 *504:3 0.288803
6 *900:Q *504:3 0.288803
*END

*D_NET *505 0.00011064

*CONN
*I *899:Q O *C 89.25 38.85 *L 0 *D NA2JIX0
*I *898:B I *C 90.51 39.69 *L 0.00341 *D NA2JIX1

*CAP
1 *899:Q 5.532e-05
2 *898:B 5.532e-05

*RES
1 *899:Q *898:B 0.5775
*END

*D_NET *506 0.00152137

*CONN
*I *896:Q O *C 103.11 66.15 *L 0 *D EN2JIX0
*I *895:A I *C 93.888 65.52 *L 0.00577 *D EO2JIX1

*CAP
1 *896:Q 5.28483e-05
2 *895:A 8.39286e-05
3 *506:3 0.000103758
4 *506:4 4.78026e-05
5 *506:5 0.00059366
6 *506:6 4.57101e-05
7 *506:7 0.00059366

*RES
1 *506:3 *895:A 9
2 *506:3 *506:4 0.184845
3 *506:5 *506:4 9
4 *506:5 *506:7 4.25034
5 *506:6 *506:7 9
6 *506:6 *896:Q 9
7 *506:2 *506:6 0.256805
*END

*D_NET *507 0.00198598

*CONN
*I *910:B I *C 96.39 65.31 *L 0.00329 *D ON21JIX1
*I *897:Q O *C 97.65 73.71 *L 0 *D NA2JIX1
*I *895:B I *C 95.13 65.31 *L 0.00629 *D EO2JIX1

*CAP
1 *910:B 8.39264e-05
2 *897:Q 7.36886e-05
3 *895:B 8.62499e-05
4 *507:3 0.000214041
5 *507:4 0.000153476
6 *507:5 0.000158096
7 *507:6 0.0005948
8 *507:7 0.00011022
9 *507:8 0.000511473

*RES
1 *507:7 *897:Q 0.866272
2 *507:4 *910:B 9
3 *507:8 *507:7 9
4 *507:4 *507:6 0.554398
5 *507:6 *507:8 2.95683
6 *507:5 *507:6 9
7 *507:3 *507:5 0.866272
8 *895:B *507:3 0.866272
*END

*D_NET *508 0.0019291

*CONN
*I *934:A I *C 84.21 54.81 *L 0.00317 *D AN21JIX1
*I *922:Q O *C 84.21 61.53 *L 0 *D NA2JIX1
*I *921:A I *C 88.41 54.81 *L 0.00377 *D EO3JIX0

*CAP
1 *934:A 8.39316e-05
2 *922:Q 5.28495e-05
3 *921:A 5.28495e-05
4 *508:4 0.000108868
5 *508:5 0.00040723
6 *508:6 0.000116188
7 *508:7 0.000159083
8 *508:8 0.000151763
9 *508:9 0.000171697
10 *508:10 0.000171697
11 *508:11 4.57097e-05
12 *508:12 0.00040723

*RES
1 *508:8 *922:Q 9
2 *508:7 *508:8 0.92395
3 *508:7 *508:10 0.184845
4 *508:9 *508:10 1.47835
5 *508:6 *508:9 0.184845
6 *508:4 *934:A 9
7 *508:4 *508:6 0.554398
8 *508:5 *508:4 9
9 *508:5 *508:12 1.84804
10 *508:11 *921:A 9
11 *508:11 *508:12 9
12 *508:3 *508:11 0.256805
*END

*D_NET *509 0.0013307

*CONN
*I *923:B I *C 86.31 65.31 *L 0.00341 *D NA2JIX1
*I *918:Q O *C 87.57 69.09 *L 0 *D ON21JIX1
*I *917:A I *C 87.99 62.37 *L 0.00377 *D EO3JIX0

*CAP
1 *923:B 0.000103121
2 *918:Q 5.28526e-05
3 *917:A 5.28526e-05
4 *509:3 0.000184109
5 *509:4 6.52807e-05
6 *509:5 0.00045527
7 *509:6 0.000131867
8 *509:7 0.000285347

*RES
1 *509:3 *917:A 9
2 *509:7 *918:Q 9
3 *509:3 *509:5 1.1088
4 *509:5 *509:7 1.84804
5 *509:4 *509:5 9
6 *509:4 *509:6 0.288803
7 *923:B *509:6 1.15494
*END

*D_NET *510 0.00060862

*CONN
*I *946:Q O *C 86.73 58.59 *L 0 *D INVJIX0
*I *940:A I *C 84.63 57.75 *L 0.0032 *D NA2JIX1

*CAP
1 *946:Q 5.75005e-05
2 *940:A 5.75005e-05
3 *510:2 0.00024681
4 *510:3 0.00024681

*RES
1 *510:3 *946:Q 0.577491
2 *510:2 *940:A 0.577491
3 *510:2 *510:3 1.44375002
*END

*D_NET *511 0.00011926

*CONN
*I *945:Q O *C 82.95 58.59 *L 0 *D INVJIX0
*I *940:B I *C 84.21 57.75 *L 0.00341 *D NA2JIX1

*CAP
1 *945:Q 5.963e-05
2 *940:B 5.963e-05

*RES
1 *945:Q *940:B 0.86625
*END

*D_NET *512 0.00074816

*CONN
*I *944:Q O *C 90.93 35.91 *L 0 *D NA2JIX0
*I *929:B I *C 89.25 32.13 *L 0.00341 *D NA2JIX1

*CAP
1 *944:Q 2.871e-05
2 *929:B 7.73401e-05
3 *512:2 0.000107649
4 *512:3 0.00016873
5 *512:4 9.92993e-05
6 *512:5 0.00016873
7 *512:6 9.77004e-05

*RES
1 *512:6 *944:Q 0.288803
2 *512:4 *512:6 0.577469
3 *512:5 *512:4 9
4 *512:3 *512:5 0.92395
5 *512:2 *512:3 9
6 *929:B *512:2 0.866272
*END

*D_NET *513 0.0005519

*CONN
*I *943:Q O *C 92.19 28.35 *L 0 *D OR2JIX0
*I *928:A I *C 92.19 24.57 *L 0.0016 *D NA2JIX0

*CAP
1 *943:Q 2.87102e-05
2 *928:A 5.28495e-05
3 *513:2 0.000112579
4 *513:3 0.00012011
5 *513:4 6.42108e-05
6 *513:5 5.75799e-05
7 *513:6 6.58108e-05
8 *513:7 5.00509e-05

*RES
1 *513:4 *943:Q 0.288803
2 *513:4 *513:6 0.288803
3 *513:7 *513:6 9
4 *513:5 *513:7 0.184845
5 *513:3 *513:5 0.184845
6 *513:2 *513:3 0.739243
7 *928:A *513:2 9
*END

*D_NET *514 0.00041506

*CONN
*I *942:Q O *C 93.45 28.35 *L 0 *D NA2JIX0
*I *926:B I *C 94.29 24.57 *L 0.00341 *D NA2JIX1

*CAP
1 *942:Q 5.28495e-05
2 *926:B 2.76596e-05
3 *514:2 5.63693e-05
4 *514:3 5.90195e-05
5 *514:4 0.00010958
6 *514:5 0.00010958

*RES
1 *514:5 *942:Q 9
2 *514:4 *514:5 0.92395
3 *514:3 *514:4 9
4 *514:2 *926:B 0.288803
5 *514:2 *514:3 0.288803
*END

*D_NET *515 0.00010308

*CONN
*I *941:Q O *C 82.11 43.47 *L 0 *D NA2JIX0
*I *932:C I *C 83.37 42.63 *L 0.0032 *D ON21JIX1

*CAP
1 *941:Q 5.154e-05
2 *932:C 5.154e-05

*RES
1 *941:Q *932:C 0.5775
*END

*D_NET *516 0.0007593

*CONN
*I *940:Q O *C 84.63 58.59 *L 0 *D NA2JIX1
*I *934:B I *C 83.37 54.81 *L 0.00336 *D AN21JIX1

*CAP
1 *940:Q 7.56989e-05
2 *934:B 5.28491e-05
3 *516:2 0.00017275
4 *516:3 0.00018007
5 *516:4 8.65111e-05
6 *516:5 0.000112229
7 *516:6 7.91912e-05

*RES
1 *516:5 *940:Q 0.577469
2 *516:6 *516:5 9
3 *516:4 *516:6 0.369553
4 *516:3 *516:4 0.184845
5 *516:2 *516:3 1.29364
6 *934:B *516:2 9
*END

*D_NET *517 0.00036682

*CONN
*I *939:Q O *C 82.11 55.23 *L 0 *D AND2JIX0
*I *934:C I *C 84.63 54.81 *L 0.00318 *D AN21JIX1

*CAP
1 *939:Q 0.000154659
2 *934:C 2.87506e-05
3 *517:2 0.00018341

*RES
1 *517:2 *934:C 0.288759
2 *939:Q *517:2 1.73249996
*END

*D_NET *518 0.00082302

*CONN
*I *938:Q O *C 80.43 42.21 *L 0 *D NO2JIX1
*I *932:A I *C 85.05 42.63 *L 0.00331 *D ON21JIX1

*CAP
1 *938:Q 2.47691e-05
2 *932:A 2.76623e-05
3 *518:2 5.35202e-05
4 *518:3 0.000301579
5 *518:4 8.51595e-05
6 *518:5 0.00033033

*RES
1 *932:A *518:4 0.288768
2 *518:4 *518:5 0.577491
3 *518:3 *518:5 2.88750005
4 *518:2 *518:3 0.288768
5 *938:Q *518:2 0.288768
*END

*D_NET *519 0.0007022

*CONN
*I *937:Q O *C 88.83 27.09 *L 0 *D EO2JIX1
*I *927:B I *C 87.99 24.57 *L 0.00629 *D EO2JIX1

*CAP
1 *937:Q 5.48985e-05
2 *927:B 5.28485e-05
3 *519:2 0.0002228
4 *519:3 6.52404e-05
5 *519:4 0.0002228
6 *519:5 8.36091e-05

*RES
1 *519:5 *937:Q 0.577469
2 *519:3 *519:5 0.288803
3 *519:4 *519:3 9
4 *519:2 *519:4 0.92395
5 *927:B *519:2 9
*END

*D_NET *520 0.0006451

*CONN
*I *936:Q O *C 81.27 47.67 *L 0 *D EO2JIX0
*I *933:A I *C 84.21 47.25 *L 0.00312 *D EN2JIX0

*CAP
1 *936:Q 2.64498e-05
2 *933:A 5.28508e-05
3 *520:2 0.000166731
4 *520:3 5.52005e-05
5 *520:4 0.00016829
6 *520:5 8.77902e-05
7 *520:6 8.77902e-05

*RES
1 *520:6 *933:A 9
2 *520:5 *520:6 0.554398
3 *520:4 *520:5 9
4 *520:2 *520:4 1.15494
5 *520:2 *520:3 0.288803
6 *936:Q *520:3 0.288803
*END

*D_NET *521 0.00073378

*CONN
*I *935:Q O *C 86.73 34.65 *L 0 *D EO2JIX0
*I *930:A I *C 86.31 39.27 *L 0.00301 *D EO2JIX0

*CAP
1 *935:Q 2.871e-05
2 *930:A 8.39287e-05
3 *521:2 9.92983e-05
4 *521:3 0.000184091
5 *521:4 0.00024005
6 *521:5 9.77013e-05

*RES
1 *521:4 *930:A 9
2 *521:3 *521:4 1.1088
3 *935:Q *521:5 0.288803
4 *521:2 *521:3 9
5 *521:2 *521:5 0.577469
*END

*D_NET *522 0.00168434

*CONN
*I *934:Q O *C 85.05 55.23 *L 0 *D AN21JIX1
*I *933:B I *C 83.37 45.99 *L 0.0032 *D EN2JIX0
*I *932:B I *C 84.21 42.63 *L 0.00329 *D ON21JIX1

*CAP
1 *934:Q 5.28513e-05
2 *933:B 5.28513e-05
3 *932:B 2.57802e-05
4 *522:3 6.23074e-05
5 *522:4 0.000243621
6 *522:5 0.000321432
7 *522:6 9.93179e-05
8 *522:7 0.00041675
9 *522:8 0.000409431

*RES
1 *522:8 *934:Q 9
2 *522:7 *522:8 2.95683
3 *522:6 *522:7 0.184845
4 *522:5 *933:B 9
5 *522:5 *522:6 0.554398
6 *522:4 *522:5 1.47835
7 *522:3 *522:4 9
8 *932:B *522:3 0.288803
*END

*D_NET *523 0.00188609

*CONN
*I *932:Q O *C 83.37 43.47 *L 0 *D ON21JIX1
*I *931:C I *C 87.99 35.07 *L 0.0032 *D ON21JIX1
*I *930:B I *C 84.63 39.69 *L 0.00334 *D EO2JIX0

*CAP
1 *932:Q 5.28509e-05
2 *931:C 5.28509e-05
3 *930:B 5.1538e-05
4 *523:4 0.000358248
5 *523:5 0.000260157
6 *523:6 0.000109042
7 *523:7 9.40294e-05
8 *523:8 0.00047278
9 *523:9 0.000128722
10 *523:10 4.57089e-05
11 *523:11 0.000260157

*RES
1 *523:6 *930:B 0.577469
2 *523:6 *523:7 0.577469
3 *523:9 *932:Q 9
4 *523:8 *523:7 9
5 *523:8 *523:9 0.739243
6 *523:4 *523:8 2.40244
7 *523:5 *523:4 9
8 *523:5 *523:11 1.84804
9 *523:10 *931:C 9
10 *523:10 *523:11 9
11 *523:3 *523:10 0.256805
*END

*D_NET *524 0.00053192

*CONN
*I *931:Q O *C 87.99 35.91 *L 0 *D ON21JIX1
*I *929:A I *C 88.83 32.13 *L 0.0032 *D NA2JIX1

*CAP
1 *931:Q 5.2851e-05
2 *929:A 5.2851e-05
3 *524:2 5.34301e-05
4 *524:3 4.59008e-05
5 *524:4 0.000159681
6 *524:5 0.00016721

*RES
1 *524:4 *929:A 9
2 *524:4 *524:5 0.92395
3 *524:3 *931:Q 9
4 *524:2 *524:5 0.184845
5 *524:2 *524:3 0.184845
*END

*D_NET *525 0.00168226

*CONN
*I *929:Q O *C 88.83 31.29 *L 0 *D NA2JIX1
*I *928:B I *C 91.77 24.57 *L 0.00171 *D NA2JIX0
*I *927:A I *C 89.232 24.36 *L 0.00577 *D EO2JIX1

*CAP
1 *929:Q 2.57819e-05
2 *928:B 2.57819e-05
3 *927:A 8.77233e-05
4 *525:3 0.00047196
5 *525:4 0.000229891
6 *525:5 5.60864e-05
7 *525:6 0.00047196
8 *525:7 8.31934e-05
9 *525:8 0.000229891

*RES
1 *525:7 *928:B 0.288803
2 *525:7 *525:8 0.577469
3 *525:4 *525:8 1.44374
4 *927:A *525:4 0.577469
5 *525:3 *927:A 9
6 *525:3 *525:6 2.95683
7 *525:5 *525:6 9
8 *929:Q *525:5 0.288803
*END

*D_NET *526 0.00053148

*CONN
*I *928:Q O *C 92.19 23.73 *L 0 *D NA2JIX0
*I *926:A I *C 94.71 24.57 *L 0.0032 *D NA2JIX1

*CAP
1 *928:Q 2.87105e-05
2 *926:A 5.74102e-05
3 *526:2 0.00020833
4 *526:3 0.00023703

*RES
1 *926:A *526:3 0.577491
2 *526:2 *526:3 1.44375002
3 *928:Q *526:2 0.288746
*END

*D_NET *527 0.00045654

*CONN
*I *925:Q O *C 84.21 66.15 *L 0 *D OR2JIX0
*I *923:A I *C 85.89 65.31 *L 0.0032 *D NA2JIX1

*CAP
1 *925:Q 2.8749e-05
2 *923:A 5.75011e-05
3 *527:2 0.000170771
4 *527:3 0.00019952

*RES
1 *527:3 *923:A 0.5775
2 *527:2 *527:3 1.15499997
3 *527:2 *925:Q 0.28875
*END

*D_NET *528 0.00013644

*CONN
*I *924:Q O *C 82.11 61.53 *L 0 *D NA2JIX0
*I *922:B I *C 83.79 62.37 *L 0.00341 *D NA2JIX1

*CAP
1 *924:Q 6.822e-05
2 *922:B 6.822e-05

*RES
1 *924:Q *922:B 0.86625
*END

*D_NET *529 0.00069516

*CONN
*I *923:Q O *C 85.89 66.15 *L 0 *D NA2JIX1
*I *922:A I *C 84.21 62.37 *L 0.0032 *D NA2JIX1

*CAP
1 *923:Q 7.42302e-05
2 *922:A 5.2849e-05
3 *529:2 0.000172601
4 *529:3 0.00017992
5 *529:4 5.60611e-05
6 *529:5 0.000110761
7 *529:6 4.87391e-05

*RES
1 *529:5 *923:Q 0.577469
2 *529:6 *529:5 9
3 *529:4 *529:6 0.184845
4 *529:3 *529:4 0.184845
5 *529:2 *529:3 0.92395
6 *922:A *529:2 9
*END

*D_NET *530 5.532e-05

*CONN
*I *920:Q O *C 86.73 69.09 *L 0 *D NA2JIX0
*I *918:C I *C 87.57 69.93 *L 0.0032 *D ON21JIX1

*CAP
1 *920:Q 2.766e-05
2 *918:C 2.766e-05

*RES
1 *920:Q *918:C 0.28875
*END

*D_NET *531 0.00069308

*CONN
*I *919:Q O *C 85.05 70.35 *L 0 *D NO2JIX1
*I *918:A I *C 89.25 69.93 *L 0.00331 *D ON21JIX1

*CAP
1 *919:Q 2.5779e-05
2 *918:A 8.39306e-05
3 *531:2 0.00016101
4 *531:3 5.45298e-05
5 *531:4 0.00016257
6 *531:5 7.46505e-05
7 *531:6 0.000130609

*RES
1 *531:6 *918:A 9
2 *531:5 *531:6 0.369553
3 *531:4 *531:5 9
4 *531:2 *531:4 2.31001
5 *531:2 *531:3 0.288803
6 *919:Q *531:3 0.288803
*END

*D_NET *532 0.00168972

*CONN
*I *918:B I *C 88.41 69.93 *L 0.00329 *D ON21JIX1
*I *916:Q O *C 85.89 76.65 *L 0 *D NA2JIX0
*I *915:C I *C 86.73 72.87 *L 0.0034 *D EN3JIX0

*CAP
1 *918:B 8.39279e-05
2 *916:Q 5.28524e-05
3 *915:C 5.28524e-05
4 *532:3 0.000182599
5 *532:4 0.00017528
6 *532:5 0.00027201
7 *532:6 0.00036556
8 *532:7 0.000122378
9 *532:8 0.00013663
10 *532:9 7.62804e-05
11 *532:10 0.000169351

*RES
1 *532:10 *918:B 9
2 *532:8 *532:10 0.554398
3 *532:8 *532:9 0.369553
4 *532:5 *532:9 0.184845
5 *532:6 *915:C 9
6 *532:5 *532:6 1.1088
7 *532:6 *532:7 0.739243
8 *532:4 *916:Q 9
9 *532:3 *532:7 0.184845
10 *532:3 *532:4 0.739243
*END

*D_NET *533 0.00020624

*CONN
*I *973:Q O *C 109.41 23.73 *L 0 *D NA2I1JIX0
*I *956:B I *C 111.51 24.57 *L 0.00341 *D NA2JIX1

*CAP
1 *973:Q 0.00010312
2 *956:B 0.00010312

*RES
1 *973:Q *956:B 1.155
*END

*D_NET *534 0.00663319

*CONN
*I *972:Q O *C 100.17 58.59 *L 0 *D INVJIX0
*I *970:RN I *C 100.17 47.25 *L 0.0037 *D SDFRRQJIX1
*I *966:RN I *C 102.27 35.07 *L 0.0037 *D SDFRRQJIX1
*I *961:RN I *C 100.17 32.13 *L 0.0037 *D SDFRRQJIX1
*I *955:RN I *C 111.09 32.13 *L 0.0037 *D SDFRRQJIX1

*CAP
1 *972:Q 2.57826e-05
2 *970:RN 5.28467e-05
3 *966:RN 5.28467e-05
4 *961:RN 5.28467e-05
5 *955:RN 5.28467e-05
6 *534:5 8.35671e-05
7 *534:6 0.00021054
8 *534:7 0.000438774
9 *534:8 0.00043252
10 *534:9 0.000350481
11 *534:10 0.000289499
12 *534:11 8.33908e-05
13 *534:12 0.000144162
14 *534:13 0.000256168
15 *534:14 0.000256168
16 *534:15 0.000139706
17 *534:16 0.000208013
18 *534:17 0.000110184
19 *534:18 0.000574212
20 *534:19 0.000366176
21 *534:20 0.000106128
22 *534:21 6.23109e-05
23 *534:22 9.88157e-05
24 *534:23 7.53962e-05
25 *534:24 0.00077048
26 *534:25 0.000174082
27 *534:26 9.03273e-05
28 *534:27 5.24234e-05
29 *534:28 0.000125997
30 *534:29 0.000125997
31 *534:30 0.00077048

*RES
1 *534:28 *955:RN 9
2 *534:28 *534:29 0.739243
3 *972:Q *534:21 0.288803
4 *534:30 *534:29 9
5 *534:22 *534:21 9
6 *534:24 *534:30 4.43518
7 *534:27 *966:RN 9
8 *534:20 *534:22 0.554398
9 *534:23 *534:24 9
10 *534:26 *534:27 0.184845
11 *534:14 *534:20 0.184845
12 *534:15 *961:RN 9
13 *534:23 *534:25 0.369553
14 *534:25 *534:26 0.369553
15 *534:13 *534:14 1.84804
16 *534:15 *534:16 1.1088
17 *534:16 *534:25 0.369553
18 *534:17 *970:RN 9
19 *534:13 *534:19 0.184845
20 *534:11 *534:16 0.184845
21 *534:17 *534:18 0.369553
22 *534:18 *534:19 1.84804
23 *534:11 *534:12 0.554398
24 *534:8 *534:18 0.92395
25 *534:9 *534:12 0.554398
26 *534:7 *534:8 2.21759
27 *534:9 *534:10 1.66319
28 *534:6 *534:7 1.1088
29 *534:5 *534:10 0.184845
30 *534:5 *534:6 0.369553
*END

*D_NET *535 0.0008584

*CONN
*I *973:AN I *C 108.15 24.57 *L 0.00163 *D NA2I1JIX0
*I *971:Q O *C 107.31 23.73 *L 0 *D INVJIX0
*I *960:B I *C 108.57 27.51 *L 0.0017 *D NA2I1JIX0

*CAP
1 *973:AN 8.80708e-05
2 *971:Q 5.15392e-05
3 *960:B 5.28504e-05
4 *535:3 0.00013452
5 *535:4 0.000142051
6 *535:5 0.00019845
7 *535:6 0.000190919

*RES
1 *535:6 *960:B 9
2 *535:5 *535:6 0.92395
3 *535:4 *535:5 0.184845
4 *535:3 *535:4 0.739243
5 *973:AN *535:3 9
6 *971:Q *973:AN 0.577469
*END

*D_NET *536 0.00335743

*CONN
*I *969:Q O *C 97.65 38.85 *L 0 *D NA2JIX1
*I *967:AN I *C 94.29 39.69 *L 0.00163 *D NO2I1JIX0
*I *963:A I *C 97.23 27.51 *L 0.00378 *D EN3JIX0
*I *962:B I *C 102.27 27.51 *L 0.00329 *D ON21JIX1

*CAP
1 *969:Q 5.28521e-05
2 *967:AN 5.28521e-05
3 *963:A 5.28521e-05
4 *962:B 5.28521e-05
5 *536:6 5.05189e-05
6 *536:7 0.00025198
7 *536:8 5.05189e-05
8 *536:9 5.05189e-05
9 *536:10 0.000214991
10 *536:11 0.000329296
11 *536:12 0.000216572
12 *536:13 0.00063976
13 *536:14 0.000601854
14 *536:15 0.00025198
15 *536:16 7.9366e-05
16 *536:17 7.9366e-05
17 *536:18 0.000329296

*RES
1 *536:16 *962:B 9
2 *536:16 *536:17 0.369553
3 *536:18 *536:17 9
4 *536:9 *963:A 9
5 *536:11 *536:18 2.21759
6 *536:9 *536:10 0.184845
7 *536:10 *536:11 9
8 *536:10 *536:12 0.92395
9 *536:12 *536:13 0.369553
10 *536:13 *536:14 3.69594
11 *536:5 *536:14 0.256805
12 *536:14 *969:Q 9
13 *536:15 *536:14 9
14 *536:8 *967:AN 9
15 *536:7 *536:15 1.66319
16 *536:6 *536:8 0.184845
17 *536:6 *536:7 9
18 *536:4 *536:6 0.0811615
*END

*D_NET *537 0.00057568

*CONN
*I *968:Q O *C 93.03 40.11 *L 0 *D NO2JIX0
*I *967:B I *C 95.13 39.69 *L 0.00166 *D NO2I1JIX0

*CAP
1 *968:Q 2.87505e-05
2 *967:B 5.28497e-05
3 *537:2 0.00017722
4 *537:3 0.00017878
5 *537:4 6.90404e-05
6 *537:5 6.90404e-05

*RES
1 *537:5 *967:B 9
2 *537:4 *537:5 0.369553
3 *537:3 *537:4 9
4 *537:2 *537:3 1.15494
5 *537:2 *968:Q 0.288803
*END

*D_NET *538 0.00058736

*CONN
*I *967:Q O *C 95.55 40.11 *L 0 *D NO2I1JIX0
*I *966:D I *C 95.55 35.49 *L 0.00167 *D SDFRRQJIX1

*CAP
1 *967:Q 5.28502e-05
2 *966:D 5.28502e-05
3 *538:2 0.00013655
4 *538:3 0.00014408
5 *538:4 0.00010428
6 *538:5 9.67503e-05

*RES
1 *538:5 *967:Q 9
2 *538:4 *538:5 0.554398
3 *538:3 *538:4 0.184845
4 *538:2 *538:3 0.739243
5 *966:D *538:2 9
*END

*D_NET *539 0.00155486

*CONN
*I *965:Q O *C 97.23 23.73 *L 0 *D NA2JIX0
*I *962:C I *C 103.11 27.51 *L 0.0032 *D ON21JIX1

*CAP
1 *965:Q 5.28368e-05
2 *962:C 2.766e-05
3 *539:2 8.15474e-05
4 *539:3 0.000479858
5 *539:4 0.00048146
6 *539:5 0.000183651
7 *539:6 6.41873e-05
8 *539:7 0.000183651

*RES
1 *962:C *539:6 0.288803
2 *539:7 *539:6 9
3 *539:5 *539:7 0.92395
4 *539:4 *539:5 9
5 *539:3 *539:4 3.46495
6 *539:2 *539:3 0.288803
7 *965:Q *539:2 0.577469
*END

*D_NET *540 0.00072062

*CONN
*I *964:Q O *C 99.33 24.99 *L 0 *D NO2JIX1
*I *962:A I *C 101.43 27.51 *L 0.00331 *D ON21JIX1

*CAP
1 *964:Q 7.42303e-05
2 *962:A 5.23814e-05
3 *540:2 0.000104539
4 *540:3 0.00020339
5 *540:4 8.26905e-05
6 *540:5 0.00020339

*RES
1 *540:4 *962:A 0.577469
2 *540:5 *540:4 9
3 *540:3 *540:5 1.1088
4 *540:2 *540:3 9
5 *964:Q *540:2 0.577469
*END

*D_NET *541 0.00147784

*CONN
*I *963:Q O *C 99.33 28.35 *L 0 *D EN3JIX0
*I *961:D I *C 93.45 31.71 *L 0.00167 *D SDFRRQJIX1

*CAP
1 *963:Q 5.15392e-05
2 *961:D 5.28474e-05
3 *541:2 0.00034994
4 *541:3 0.000189422
5 *541:4 0.000189422
6 *541:5 0.000108039
7 *541:6 0.000348338
8 *541:7 8.0251e-05
9 *541:8 0.000108039

*RES
1 *541:7 *963:Q 0.577469
2 *541:7 *541:8 0.288803
3 *541:4 *961:D 9
4 *541:5 *541:8 0.866272
5 *541:3 *541:4 0.92395
6 *541:5 *541:6 0.288803
7 *541:2 *541:3 9
8 *541:2 *541:6 2.59882
*END

*D_NET *542 0.00171158

*CONN
*I *962:Q O *C 103.11 28.35 *L 0 *D ON21JIX1
*I *958:A I *C 111.51 27.51 *L 0.0016 *D NA2JIX0
*I *957:A I *C 106.05 27.93 *L 0.00301 *D EO2JIX0

*CAP
1 *962:Q 2.87151e-05
2 *958:A 5.74067e-05
3 *957:A 5.74067e-05
4 *542:3 0.000249064
5 *542:4 0.00076967
6 *542:5 0.000549321

*RES
1 *542:5 *958:A 0.577482
2 *542:4 *542:5 4.04250002
3 *542:4 *957:A 0.577482
4 *542:3 *542:4 1.73251
5 *542:3 *962:Q 0.288741
*END

*D_NET *543 0.0002213

*CONN
*I *960:Q O *C 108.99 28.35 *L 0 *D NA2I1JIX0
*I *958:B I *C 111.09 27.51 *L 0.00171 *D NA2JIX0

*CAP
1 *960:Q 0.00011065
2 *958:B 0.00011065

*RES
1 *960:Q *958:B 1.155
*END

*D_NET *544 0.0004978

*CONN
*I *959:Q O *C 104.37 24.99 *L 0 *D EO2JIX0
*I *957:B I *C 104.37 27.51 *L 0.00334 *D EO2JIX0

*CAP
1 *959:Q 5.28514e-05
2 *957:B 5.28514e-05
3 *544:2 0.00019605
4 *544:3 0.00019605

*RES
1 *544:3 *957:B 9
2 *544:2 *544:3 1.1088
3 *959:Q *544:2 9
*END

*D_NET *545 0.00046616

*CONN
*I *958:Q O *C 111.51 28.35 *L 0 *D NA2JIX0
*I *956:A I *C 111.93 24.57 *L 0.0032 *D NA2JIX1

*CAP
1 *958:Q 2.871e-05
2 *956:A 5.2849e-05
3 *545:2 0.00015968
4 *545:3 6.52389e-05
5 *545:4 0.00015968

*RES
1 *545:3 *958:Q 0.288803
2 *545:4 *545:3 9
3 *545:2 *545:4 0.92395
4 *956:A *545:2 9
*END

*D_NET *546 0.0009647

*CONN
*I *957:Q O *C 106.47 27.09 *L 0 *D EO2JIX0
*I *955:D I *C 104.37 31.71 *L 0.00167 *D SDFRRQJIX1

*CAP
1 *957:Q 2.87093e-05
2 *955:D 5.28487e-05
3 *546:2 0.00027177
4 *546:3 0.000170601
5 *546:4 0.000170601
6 *546:5 0.000270169

*RES
1 *546:4 *955:D 9
2 *546:3 *546:4 0.92395
3 *957:Q *546:5 0.288803
4 *546:2 *546:3 9
5 *546:2 *546:5 2.02121
*END

